136

C 21.940574 12.667024 59.870442
C 22.014764 11.190587 59.631373
C 22.478261 10.399892 60.684485
C 21.443139 9.824948 60.873719
C 20.754345 10.482573 59.870442
C 19.648662 11.390908 60.339605
C 18.704084 10.950843 61.234157
C 19.526036 12.772634 59.870442
C 20.764146 13.410776 59.429852
C 22.469229 10.934678 58.642948
C 40.280382 23.255207 59.870442
C 40.206191 24.731644 59.631373
C 39.742694 25.522339 60.684485
C 40.777816 26.097283 60.873719
C 41.466610 25.439658 59.870442
C 42.572293 24.531324 60.339605
C 43.516871 24.971388 61.234157
C 42.694919 23.149598 59.870442
C 41.456809 22.511456 59.429852
C 39.751726 24.987554 58.642948
C 42.680892 48.589256 59.870442
C 42.755082 47.112818 59.631373
C 43.218579 46.322123 60.684485
C 42.183458 45.747180 60.873719
C 41.494664 46.404805 59.870442
C 40.388980 47.313139 60.339605
C 39.444402 46.873075 61.234157
C 40.266354 48.694865 59.870442
C 41.504465 49.333007 59.429852
C 43.209547 46.856909 58.642948
C 61.020700 59.177438 59.870442
C 60.946509 60.653876 59.631373
C 60.483013 61.444571 60.684485
C 61.518134 62.019514 60.873719
C 62.206928 61.361890 59.870442
C 62.756270 62.464834 58.364059
C 63.312611 60.453555 60.339605
C 64.257190 60.893619 61.234157
C 63.435237 59.071829 59.870442
C 62.197127 58.433687 59.429852
C 60.492044 60.909785 58.642948
C 63.421210 12.667024 59.870442
C 63.495401 11.190587 59.631373
C 63.958897 10.399892 60.684485
C 62.923776 9.824948 60.873719
C 62.234982 10.482573 59.870442
C 61.129299 11.390908 60.339605
C 60.184720 10.950843 61.234157
C 61.006673 12.772634 59.870442
C 62.244783 13.410776 59.429852
C 63.949866 10.934678 58.642948
C 81.761018 23.255207 59.870442
C 81.686828 24.731644 59.631373
C 81.223331 25.522339 60.684485
C 82.258453 26.097283 60.873719
C 82.947246 25.439658 59.870442
C 84.052930 24.531324 60.339605
C 84.997508 24.971388 61.234157
C 84.175556 23.149598 59.870442
C 85.844801 22.223444 59.831052
C 82.937445 22.511456 59.429852
C 81.232363 24.987554 58.642948
C 84.161529 48.589256 59.870442
C 84.235719 47.112818 59.631373
C 84.699216 46.322123 60.684485
C 83.664094 45.747180 60.873719
C 82.975300 46.404805 59.870442
C 81.869617 47.313139 60.339605
C 80.925039 46.873075 61.234157
C 81.746991 48.694865 59.870442
C 82.985101 49.333007 59.429852
C 84.690184 46.856909 58.642948
C 102.501337 59.177438 59.870442
C 102.427146 60.653876 59.631373
C 101.963649 61.444571 60.684485
C 102.998771 62.019514 60.873719
C 103.687565 61.361890 59.870442
C 104.236906 62.464834 58.364059
C 104.793248 60.453555 60.339605
C 105.737826 60.893619 61.234157
C 104.915874 59.071829 59.870442
C 106.585119 58.145676 59.831052
C 103.677764 58.433687 59.429852
C 101.972681 60.909785 58.642948
C 30.541148 17.632423 59.870442
C 31.679807 18.289808 59.870442
C 32.310589 17.008460 59.870485
C 31.212151 16.387166 59.870460
C 20.740318 0.657400 59.870442
C 20.740318 -0.657400 59.870442
C 22.032326 -2.073206 59.870470
C 19.315246 -0.563017 59.870485
C 19.326392 0.698905 59.870460
C 10.939488 17.632423 59.870442
C 9.800830 18.289808 59.870442
C 7.928707 17.878776 59.870470
C 10.595089 19.476776 59.870485
C 11.682380 18.836176 59.870460
C 51.281467 53.554654 59.870442
C 52.420125 54.212040 59.870442
C 53.050908 52.930691 59.870485
C 51.952470 52.309398 59.870460
C 41.480637 36.579631 59.870442
C 41.480637 35.264832 59.870442
C 40.055564 35.359214 59.870485
C 40.066711 36.621136 59.870460
C 31.679807 53.554654 59.870442
C 30.541148 54.212040 59.870442
C 28.669025 53.801008 59.870470
C 31.335407 55.399008 59.870485
C 32.422699 54.758407 59.870460
C 72.021785 17.632423 59.870442
C 73.160443 18.289808 59.870442
C 73.791226 17.008460 59.870485
C 72.692788 16.387166 59.870460
C 62.220955 0.657400 59.870442
C 62.220955 -0.657400 59.870442
C 63.512963 -2.073206 59.870470
C 60.795882 -0.563017 59.870485
C 60.807029 0.698905 59.870460
C 52.420125 17.632423 59.870442
C 51.281467 18.289808 59.870442
C 52.075726 19.476776 59.870485
C 53.163017 18.836176 59.870460
C 92.762103 53.554654 59.870442
C 93.900762 54.212040 59.870442
C 94.531544 52.930691 59.870485
C 93.433106 52.309398 59.870460
C 82.961273 36.579631 59.870442
C 82.961273 35.264832 59.870442
C 81.536201 35.359214 59.870485
C 81.547348 36.621136 59.870460
C 73.160443 53.554654 59.870442
C 72.021785 54.212040 59.870442
C 72.816044 55.399008 59.870485
C 73.903335 54.758407 59.870460
