52

C 19.846941 18.814382 18.814373
C 18.911179 19.753943 18.814391
C 17.729090 18.862474 18.814374
C 16.889234 18.945693 19.873469
C 18.770318 17.826729 18.814390
C 19.846941 56.443146 18.814373
C 18.911179 57.382707 18.814391
C 17.729090 56.491239 18.814374
C 16.889234 56.574457 19.873469
C 18.770318 55.455493 18.814390
C 57.475706 18.814382 18.814373
C 56.539944 19.753943 18.814391
C 55.357855 18.862474 18.814374
C 54.517998 18.945693 19.873469
C 56.399082 17.826729 18.814390
C 57.475706 56.443146 18.814373
C 56.539944 57.382707 18.814391
C 55.357855 56.491239 18.814374
C 54.517998 56.574457 19.873469
C 56.399082 55.455493 18.814390
C 36.971364 18.814382 18.814382
C 38.286164 18.814382 18.814382
C 38.191782 17.389309 18.814425
C 36.929859 17.400456 18.814400
C 18.814382 36.971364 18.814382
C 18.814382 38.286164 18.814382
C 20.239455 38.191782 18.814425
C 20.228308 36.929859 18.814400
C 36.971364 56.443146 18.814382
C 38.286164 56.443146 18.814382
C 38.191782 55.018074 18.814425
C 36.929859 55.029221 18.814400
C 18.814382 74.600129 18.814382
C 18.814382 75.914928 18.814382
C 20.239455 75.820546 18.814425
C 20.228308 74.558624 18.814400
C 74.600129 18.814382 18.814382
C 75.914928 18.814382 18.814382
C 75.820546 17.389309 18.814425
C 74.558624 17.400456 18.814400
C 56.443146 36.971364 18.814382
C 56.443146 38.286164 18.814382
C 57.868219 38.191782 18.814425
C 57.857072 36.929859 18.814400
C 74.600129 56.443146 18.814382
C 75.914928 56.443146 18.814382
C 75.820546 55.018074 18.814425
C 74.558624 55.029221 18.814400
C 56.443146 74.600129 18.814382
C 56.443146 75.914928 18.814382
C 57.868219 75.820546 18.814425
C 57.857072 74.558624 18.814400
