52

C 40.717887 39.110508 18.705771
C 39.782125 40.050069 18.705788
C 38.600036 39.158600 18.705771
C 37.760180 39.241819 19.764867
C 39.641264 38.122854 18.705787
C 40.717887 45.385925 18.705771
C 39.782125 46.325486 18.705788
C 38.600036 45.434017 18.705771
C 37.760180 45.517236 19.764867
C 39.641264 44.398272 18.705787
C 46.993305 39.110508 18.705771
C 46.057543 40.050069 18.705788
C 44.875454 39.158600 18.705771
C 44.035597 39.241819 19.764867
C 45.916681 38.122854 18.705787
C 46.993305 45.385925 18.705771
C 46.057543 46.325486 18.705788
C 44.875454 45.434017 18.705771
C 44.035597 45.517236 19.764867
C 45.916681 44.398272 18.705787
C 41.873126 39.723773 18.882259
C 43.187925 39.723773 18.882259
C 43.093543 38.298701 18.882302
C 41.831621 38.309847 18.882277
C 38.773127 41.641005 18.882259
C 38.773127 42.955805 18.882259
C 40.198200 42.861422 18.882302
C 40.187053 41.599500 18.882277
C 41.873126 45.999191 18.882259
C 43.187925 45.999191 18.882259
C 43.093543 44.574118 18.882302
C 41.831621 44.585265 18.882277
C 38.773127 47.916423 18.882259
C 38.773127 49.231222 18.882259
C 40.198200 49.136840 18.882302
C 40.187053 47.874918 18.882277
C 48.148543 39.723773 18.882259
C 49.463343 39.723773 18.882259
C 49.368960 38.298701 18.882302
C 48.107038 38.309847 18.882277
C 45.048545 41.641005 18.882259
C 45.048545 42.955805 18.882259
C 46.473617 42.861422 18.882302
C 46.462470 41.599500 18.882277
C 48.148543 45.999191 18.882259
C 49.463343 45.999191 18.882259
C 49.368960 44.574118 18.882302
C 48.107038 44.585265 18.882277
C 45.048545 47.916423 18.882259
C 45.048545 49.231222 18.882259
C 46.473617 49.136840 18.882302
C 46.462470 47.874918 18.882277
