1566

C 24.664983 15.059430 92.391518
C 25.421080 13.823179 91.992251
C 24.639532 12.623551 92.482368
C 23.253577 12.617195 91.876684
C 22.529946 13.808426 92.495364
C 23.222338 15.049179 91.968731
C 22.362958 16.592832 92.771939
C 24.652529 15.077013 93.509884
C 26.390787 13.849367 92.544461
C 24.490166 12.801171 93.577466
C 22.753327 11.659200 92.120130
C 22.672283 13.737834 93.587761
C 23.106944 15.097065 90.874382
C 39.215664 40.261210 92.391518
C 38.459566 41.497461 91.992251
C 39.241115 42.697089 92.482368
C 40.627070 42.703445 91.876684
C 41.350701 41.512215 92.495364
C 40.658309 40.271461 91.968731
C 38.299423 44.347821 92.218379
C 39.228118 40.243627 93.509884
C 37.489859 41.471273 92.544461
C 39.390481 42.519469 93.577466
C 41.127320 43.661440 92.120130
C 41.208363 41.582806 93.587761
C 40.773703 40.223575 90.874382
C 54.476117 13.830160 92.391518
C 55.168676 15.103094 91.992251
C 56.598360 15.026085 92.482368
C 57.296858 13.829000 91.876684
C 56.627052 12.606694 92.495364
C 55.206333 12.585927 91.968731
C 54.467117 13.810583 93.509884
C 54.661133 15.929785 92.544461
C 56.519223 14.807920 93.577466
C 58.376629 13.874782 92.120130
C 56.617016 12.765257 93.587761
C 55.222561 12.462051 90.874382
C 70.446278 41.490480 92.391518
C 71.138838 42.763414 91.992251
C 72.568522 42.686406 92.482368
C 73.267019 41.489320 91.876684
C 72.597214 40.267014 92.495364
C 71.176495 40.246247 91.968731
C 70.437279 41.470903 93.509884
C 70.631295 43.590105 92.544461
C 72.489384 42.468240 93.577466
C 74.346791 41.535102 92.120130
C 72.587177 40.425577 93.587761
C 71.192723 40.122371 90.874382
C 56.605306 70.380070 92.391518
C 57.361404 69.143820 91.992251
C 56.579855 67.944191 92.482368
C 55.193900 67.937835 91.876684
C 54.470269 69.129066 92.495364
C 55.162661 70.369819 91.968731
C 54.303281 71.913473 92.771939
C 56.592852 70.397653 93.509884
C 58.331111 69.170007 92.544461
C 56.430489 68.121811 93.577466
C 54.693651 66.979840 92.120130
C 54.612607 69.058474 93.587761
C 55.047267 70.417705 90.874382
C 71.155987 95.581850 92.391518
C 70.399890 96.818101 91.992251
C 71.181438 98.017729 92.482368
C 72.567394 98.024085 91.876684
C 73.291024 96.832855 92.495364
C 72.598633 95.592101 91.968731
C 72.533780 97.688917 89.968123
C 70.239747 99.668461 92.218379
C 71.168442 95.564267 93.509884
C 69.430183 96.791914 92.544461
C 71.330804 97.840109 93.577466
C 73.067643 98.982080 92.120130
C 73.148687 96.903446 93.587761
C 72.714026 95.544215 90.874382
C 86.416440 69.150800 92.391518
C 87.109000 70.423734 91.992251
C 88.538683 70.346726 92.482368
C 89.237181 69.149640 91.876684
C 88.567376 67.927334 92.495364
C 87.146656 67.906567 91.968731
C 86.407440 69.131223 93.509884
C 86.601457 71.250425 92.544461
C 88.459546 70.128560 93.577466
C 90.316953 69.195422 92.120130
C 88.557339 68.085897 93.587761
C 87.162884 67.782691 90.874382
C 102.386602 96.811120 92.391518
C 103.079161 98.084054 91.992251
C 104.508845 98.007046 92.482368
C 105.207343 96.809960 91.876684
C 104.537537 95.587654 92.495364
C 103.116818 95.566888 91.968731
C 105.467554 99.647953 92.218379
C 102.938299 98.481010 90.124393
C 102.377602 96.791543 93.509884
C 102.571619 98.910745 92.544461
C 104.429708 97.788880 93.577466
C 106.287114 96.855742 92.120130
C 104.527501 95.746217 93.587761
C 103.133046 95.443011 90.874382
C 88.545630 15.059430 92.391518
C 89.301727 13.823179 91.992251
C 88.520179 12.623551 92.482368
C 87.134223 12.617195 91.876684
C 86.410593 13.808426 92.495364
C 87.102984 15.049179 91.968731
C 88.533175 15.077013 93.509884
C 90.271434 13.849367 92.544461
C 88.370813 12.801171 93.577466
C 86.633974 11.659200 92.120130
C 86.552930 13.737834 93.587761
C 86.987591 15.097065 90.874382
C 103.096311 40.261210 92.391518
C 102.340213 41.497461 91.992251
C 103.121762 42.697089 92.482368
C 104.507717 42.703445 91.876684
C 105.231348 41.512215 92.495364
C 104.538956 40.271461 91.968731
C 103.108765 40.243627 93.509884
C 101.370506 41.471273 92.544461
C 103.271128 42.519469 93.577466
C 105.007966 43.661440 92.120130
C 105.089010 41.582806 93.587761
C 104.654350 40.223575 90.874382
C 118.356763 13.830160 92.391518
C 119.049323 15.103094 91.992251
C 120.479007 15.026085 92.482368
C 121.177504 13.829000 91.876684
C 120.507699 12.606694 92.495364
C 119.086980 12.585927 91.968731
C 120.870435 13.690522 89.968123
C 118.347764 13.810583 93.509884
C 118.541780 15.929785 92.544461
C 120.399869 14.807920 93.577466
C 122.257276 13.874782 92.120130
C 120.497663 12.765257 93.587761
C 119.103208 12.462051 90.874382
C 134.326925 41.490480 92.391518
C 135.019485 42.763414 91.992251
C 136.449168 42.686406 92.482368
C 137.147666 41.489320 91.876684
C 136.477861 40.267014 92.495364
C 135.057141 40.246247 91.968731
C 136.840597 41.350842 89.968123
C 134.317925 41.470903 93.509884
C 134.511942 43.590105 92.544461
C 136.370031 42.468240 93.577466
C 138.227438 41.535102 92.120130
C 136.467824 40.425577 93.587761
C 135.073369 40.122371 90.874382
C 120.485953 70.380070 92.391518
C 121.242051 69.143820 91.992251
C 120.460502 67.944191 92.482368
C 119.074547 67.937835 91.876684
C 118.350916 69.129066 92.495364
C 119.043308 70.369819 91.968731
C 120.473499 70.397653 93.509884
C 122.211758 69.170007 92.544461
C 120.311136 68.121811 93.577466
C 118.574297 66.979840 92.120130
C 118.493254 69.058474 93.587761
C 118.927914 70.417705 90.874382
C 135.036634 95.581850 92.391518
C 134.280537 96.818101 91.992251
C 135.062085 98.017729 92.482368
C 136.448040 98.024085 91.876684
C 137.171671 96.832855 92.495364
C 136.479279 95.592101 91.968731
C 136.414427 97.688917 89.968123
C 134.120394 99.668461 92.218379
C 135.049088 95.564267 93.509884
C 133.310830 96.791914 92.544461
C 135.211451 97.840109 93.577466
C 136.948290 98.982080 92.120130
C 137.029333 96.903446 93.587761
C 136.594673 95.544215 90.874382
C 150.297087 69.150800 92.391518
C 150.989647 70.423734 91.992251
C 152.419330 70.346726 92.482368
C 153.117828 69.149640 91.876684
C 152.448023 67.927334 92.495364
C 151.027303 67.906567 91.968731
C 152.810759 69.011162 89.968123
C 150.288087 69.131223 93.509884
C 150.482104 71.250425 92.544461
C 152.340193 70.128560 93.577466
C 154.197600 69.195422 92.120130
C 152.437986 68.085897 93.587761
C 151.043531 67.782691 90.874382
C 166.267249 96.811120 92.391518
C 166.959808 98.084054 91.992251
C 168.389492 98.007046 92.482368
C 169.087989 96.809960 91.876684
C 168.418184 95.587654 92.495364
C 166.997465 95.566888 91.968731
C 168.780920 96.671482 89.968123
C 169.348201 99.647953 92.218379
C 166.818946 98.481010 90.124393
C 166.258249 96.791543 93.509884
C 166.452265 98.910745 92.544461
C 168.310354 97.788880 93.577466
C 170.167761 96.855742 92.120130
C 168.408148 95.746217 93.587761
C 167.013693 95.443011 90.874382
C 31.935527 25.210094 91.613844
C 30.708576 25.526934 92.201153
C 30.422935 26.807820 92.635677
C 31.379535 27.802017 92.482262
C 31.052893 29.076140 92.919907
C 31.971026 30.102999 92.777491
C 33.172070 29.793706 92.201153
C 33.499461 28.531854 91.766701
C 32.589874 27.495453 91.903858
C 32.896385 26.206449 91.460326
C 34.224922 25.933162 90.872033
C 35.325281 25.749860 91.858081
C 35.096480 24.582033 92.793926
C 36.251533 24.459584 93.767455
C 32.143549 24.196308 91.281210
C 29.456584 27.008514 93.088531
C 30.104053 29.290681 93.369578
C 31.730327 31.105159 93.118312
C 34.463424 28.391798 91.323387
C 34.562508 26.721112 90.155297
C 34.192003 25.003864 90.240799
C 36.245999 25.532307 91.281033
C 35.525932 26.636836 92.477071
C 35.096736 23.614723 92.209593
C 34.175707 24.622299 93.370340
C 36.425053 25.391609 94.338082
C 37.183831 24.340515 93.139843
C 36.094747 23.563491 94.406643
C 37.801064 12.616209 91.599438
C 37.461965 13.830160 92.201153
C 38.428411 14.712785 92.646151
C 39.767716 14.383298 92.488827
C 40.707807 15.298009 92.937326
C 42.056163 15.018035 92.791587
C 42.388844 13.830160 92.201153
C 41.459755 12.920898 91.755912
C 40.107409 13.188764 91.896248
C 39.144365 12.284115 91.441980
C 39.571977 11.003980 90.838499
C 39.963425 9.947802 91.812118
C 38.837662 9.550977 92.743333
C 39.309158 8.478008 93.704234
C 37.027119 11.933137 91.258699
C 38.119031 15.644589 93.110063
C 40.419172 16.221610 93.397958
C 42.803700 15.723494 93.140780
C 41.820457 12.021367 91.301922
C 40.423153 11.114082 90.123015
C 38.750728 10.575329 90.202148
C 40.235389 9.048555 91.224389
C 40.831891 10.210190 92.434257
C 38.000081 9.074037 92.153315
C 38.412136 10.361640 93.329380
C 40.203071 8.786986 94.278557
C 39.672201 7.618571 93.066408
C 38.454730 8.158191 94.339682
C 45.799227 28.894344 91.594246
C 46.678738 29.793706 92.201153
C 47.924685 29.397110 92.649926
C 48.309596 28.072838 92.491193
C 49.570139 27.715103 92.943604
C 50.002411 26.407723 92.796667
C 49.142232 25.526934 92.201153
C 47.891898 25.877859 91.752023
C 47.447163 27.182651 91.893505
C 46.183880 27.565308 91.435368
C 45.291317 26.556204 90.826411
C 44.568774 25.687022 91.795500
C 43.658772 26.461546 92.725007
C 42.961759 25.514673 93.681306
C 44.821962 29.223784 91.250586
C 48.575224 30.129954 93.117823
C 50.223960 28.425886 93.408185
C 50.985829 26.112329 93.148877
C 47.294931 25.116685 91.294186
C 45.814916 25.875652 90.111405
C 44.511826 27.054455 90.188231
C 43.928180 25.003125 91.203926
C 45.227940 25.064778 92.418756
C 42.829124 26.949697 92.132953
C 44.145874 27.234141 93.314519
C 43.674174 24.893789 94.256946
C 42.401368 24.771912 93.039806
C 42.255214 26.093353 94.315379
C 53.771226 40.276529 91.599438
C 53.432126 41.490480 92.201153
C 54.398573 42.373105 92.646151
C 55.737878 42.043618 92.488827
C 56.677968 42.958329 92.937326
C 58.026325 42.678355 92.791587
C 58.359006 41.490480 92.201153
C 57.429917 40.581218 91.755912
C 56.077570 40.849084 91.896248
C 55.114527 39.944436 91.441980
C 55.542138 38.664300 90.838499
C 55.933587 37.608122 91.812118
C 54.807824 37.211297 92.743333
C 55.279320 36.138328 93.704234
C 52.997281 39.593457 91.258699
C 54.089193 43.304909 93.110063
C 56.389334 43.881930 93.397958
C 58.773862 43.383814 93.140780
C 57.790618 39.681687 91.301922
C 56.393315 38.774402 90.123015
C 54.720890 38.235649 90.202148
C 56.205551 36.708875 91.224389
C 56.802053 37.870510 92.434257
C 53.970243 36.734357 92.153315
C 54.382298 38.021960 93.329380
C 56.173232 36.447306 94.278557
C 55.642363 35.278891 93.066408
C 54.424891 35.818511 94.339682
C 63.875850 25.210094 91.613844
C 62.648900 25.526934 92.201153
C 62.363258 26.807820 92.635677
C 63.319859 27.802017 92.482262
C 62.993217 29.076140 92.919907
C 63.911350 30.102999 92.777491
C 65.112394 29.793706 92.201153
C 65.439784 28.531854 91.766701
C 64.530198 27.495453 91.903858
C 64.836708 26.206449 91.460326
C 66.165246 25.933162 90.872033
C 67.265604 25.749860 91.858081
C 67.036803 24.582033 92.793926
C 68.191856 24.459584 93.767455
C 64.083873 24.196308 91.281210
C 61.396907 27.008514 93.088531
C 62.044377 29.290681 93.369578
C 63.670650 31.105159 93.118312
C 66.403748 28.391798 91.323387
C 66.502832 26.721112 90.155297
C 66.132327 25.003864 90.240799
C 68.186322 25.532307 91.281033
C 67.466255 26.636836 92.477071
C 67.037059 23.614723 92.209593
C 66.116030 24.622299 93.370340
C 68.365376 25.391609 94.338082
C 69.124155 24.340515 93.139843
C 68.035070 23.563491 94.406643
C 10.109421 15.035929 91.583204
C 10.448521 13.830160 92.201153
C 9.482074 12.953586 92.657954
C 8.142769 13.280932 92.496223
C 7.202678 12.372320 92.956954
C 5.854322 12.650315 92.807472
C 5.521641 13.830160 92.201153
C 3.651684 14.231762 91.981942
C 6.450730 14.733366 91.743752
C 7.803077 14.467408 91.887670
C 8.766120 15.365879 91.421304
C 8.338508 16.637802 90.800702
C 7.947060 17.706948 91.760062
C 9.072823 18.116233 92.685869
C 8.601327 19.201998 93.632287
C 10.883366 15.714367 91.233331
C 9.791454 12.028090 93.134326
C 7.491313 11.454983 93.429937
C 5.106785 11.949604 93.166099
C 6.090028 15.626725 91.277734
C 7.487332 16.518111 90.086759
C 9.159757 17.057876 90.158657
C 7.675096 18.598229 91.160320
C 7.078594 17.452932 92.385665
C 9.910404 18.585213 92.089505
C 9.498349 17.313506 93.282739
C 7.707414 18.900754 94.210703
C 8.238284 20.052799 92.982987
C 9.455756 19.530313 94.263386
C 15.985168 2.444331 91.589938
C 17.201909 2.133386 92.201153
C 17.479999 0.856860 92.653058
C 16.526068 -0.138878 92.493155
C 16.845100 -1.408608 92.948812
C 15.929440 -2.436895 92.800882
C 14.738415 -2.133386 92.201153
C 13.454568 -3.551391 91.984185
C 14.418579 -0.875896 91.748796
C 15.325784 0.161881 91.891229
C 15.026982 1.446434 91.429881
C 13.708682 1.713810 90.816382
C 12.591700 1.906710 91.781690
C 12.804623 3.083704 92.709765
C 11.633162 3.215626 93.662224
C 15.782928 3.454779 91.243854
C 18.438478 0.660711 93.124261
C 17.786123 -1.618635 93.416671
C 16.164215 -3.435634 93.155596
C 13.462319 -0.740288 91.287768
C 13.383289 0.918820 90.101783
C 13.752428 2.636856 90.176690
C 11.680965 2.118499 91.186928
C 12.380459 1.025848 92.405866
C 12.814403 4.045220 92.116026
C 13.715439 3.049187 93.302149
C 11.449869 2.289245 94.238951
C 10.711702 3.328438 93.017679
C 11.779112 4.117976 94.295145
C 29.829065 1.234024 91.594246
C 30.708576 2.133386 92.201153
C 31.954523 1.736790 92.649926
C 32.339435 0.412518 92.491193
C 33.599977 0.054783 92.943604
C 34.032249 -1.252597 92.796667
C 33.172070 -2.133386 92.201153
C 33.757555 -3.954602 91.985620
C 31.921736 -1.782461 91.752023
C 31.477002 -0.477669 91.893505
C 30.213718 -0.095012 91.435368
C 29.321155 -1.104116 90.826411
C 28.598612 -1.973298 91.795500
C 27.688610 -1.198774 92.725007
C 26.991598 -2.145647 93.681306
C 28.851800 1.563464 91.250586
C 32.605062 2.469634 93.117823
C 34.253798 0.765566 93.408185
C 35.015667 -1.547991 93.148877
C 31.324770 -2.543635 91.294186
C 29.844754 -1.784668 90.111405
C 28.541665 -0.605865 90.188231
C 27.958018 -2.657195 91.203926
C 29.257778 -2.595542 92.418756
C 26.858963 -0.710623 92.132953
C 28.175712 -0.426179 93.314519
C 27.704012 -2.766531 94.256946
C 26.431206 -2.888408 93.039806
C 26.285052 -1.566967 94.315379
C 61.769389 1.234024 91.594246
C 62.648900 2.133386 92.201153
C 63.894847 1.736790 92.649926
C 64.279758 0.412518 92.491193
C 65.540301 0.054783 92.943604
C 65.972573 -1.252597 92.796667
C 65.112394 -2.133386 92.201153
C 65.697878 -3.954602 91.985620
C 63.862059 -1.782461 91.752023
C 63.417325 -0.477669 91.893505
C 62.154042 -0.095012 91.435368
C 61.261479 -1.104116 90.826411
C 60.538935 -1.973298 91.795500
C 59.628933 -1.198774 92.725007
C 58.931921 -2.145647 93.681306
C 60.792124 1.563464 91.250586
C 64.545386 2.469634 93.117823
C 66.194121 0.765566 93.408185
C 66.955990 -1.547991 93.148877
C 63.265093 -2.543635 91.294186
C 61.785078 -1.784668 90.111405
C 60.481988 -0.605865 90.188231
C 59.898341 -2.657195 91.203926
C 61.198102 -2.595542 92.418756
C 58.799286 -0.710623 92.132953
C 60.116036 -0.426179 93.314519
C 59.644336 -2.766531 94.256946
C 58.371529 -2.888408 93.039806
C 58.225375 -1.566967 94.315379
C 47.925492 2.444331 91.589938
C 49.142232 2.133386 92.201153
C 49.420323 0.856860 92.653058
C 48.466391 -0.138878 92.493155
C 48.785423 -1.408608 92.948812
C 47.869764 -2.436895 92.800882
C 46.678738 -2.133386 92.201153
C 45.394891 -3.551391 91.984185
C 46.358902 -0.875896 91.748796
C 47.266107 0.161881 91.891229
C 46.967305 1.446434 91.429881
C 45.649005 1.713810 90.816382
C 44.532023 1.906710 91.781690
C 44.744946 3.083704 92.709765
C 43.573486 3.215626 93.662224
C 47.723251 3.454779 91.243854
C 50.378802 0.660711 93.124261
C 49.726447 -1.618635 93.416671
C 48.104538 -3.435634 93.155596
C 45.402643 -0.740288 91.287768
C 45.323613 0.918820 90.101783
C 45.692751 2.636856 90.176690
C 43.621288 2.118499 91.186928
C 44.320782 1.025848 92.405866
C 44.754726 4.045220 92.116026
C 45.655762 3.049187 93.302149
C 43.390192 2.289245 94.238951
C 42.652025 3.328438 93.017679
C 43.719435 4.117976 94.295145
C 26.079583 42.696249 91.583204
C 26.418682 41.490480 92.201153
C 25.452235 40.613906 92.657954
C 24.112931 40.941252 92.496223
C 23.172840 40.032640 92.956954
C 21.824484 40.310635 92.807472
C 21.491803 41.490480 92.201153
C 19.621846 41.892082 91.981942
C 22.420891 42.393686 91.743752
C 23.773238 42.127728 91.887670
C 24.736282 43.026199 91.421304
C 24.308670 44.298122 90.800702
C 23.917222 45.367268 91.760062
C 25.042985 45.776553 92.685869
C 24.571489 46.862318 93.632287
C 26.853528 43.374687 91.233331
C 25.761616 39.688410 93.134326
C 23.461474 39.115303 93.429937
C 21.076947 39.609924 93.166099
C 22.060190 43.287045 91.277734
C 23.457494 44.178431 90.086759
C 25.129919 44.718196 90.158657
C 23.645258 46.258549 91.160320
C 23.048756 45.113252 92.385665
C 25.880565 46.245533 92.089505
C 25.468510 44.973826 93.282739
C 23.677576 46.561074 94.210703
C 24.208445 47.713120 92.982987
C 25.425917 47.190633 94.263386
C 77.739551 28.894344 91.594246
C 78.619062 29.793706 92.201153
C 79.865008 29.397110 92.649926
C 80.249920 28.072838 92.491193
C 81.510463 27.715103 92.943604
C 81.942735 26.407723 92.796667
C 81.082555 25.526934 92.201153
C 79.832221 25.877859 91.752023
C 79.387487 27.182651 91.893505
C 78.124203 27.565308 91.435368
C 77.231640 26.556204 90.826411
C 76.509097 25.687022 91.795500
C 75.599095 26.461546 92.725007
C 74.902083 25.514673 93.681306
C 76.762285 29.223784 91.250586
C 80.515547 30.129954 93.117823
C 82.164283 28.425886 93.408185
C 82.926152 26.112329 93.148877
C 79.235255 25.116685 91.294186
C 77.755240 25.875652 90.111405
C 76.452150 27.054455 90.188231
C 75.868503 25.003125 91.203926
C 77.168264 25.064778 92.418756
C 74.769448 26.949697 92.132953
C 76.086198 27.234141 93.314519
C 75.614497 24.893789 94.256946
C 74.341691 24.771912 93.039806
C 74.195537 26.093353 94.315379
C 63.875850 80.530735 91.613844
C 62.648900 80.847574 92.201153
C 62.363258 82.128460 92.635677
C 63.319859 83.122657 92.482262
C 62.993217 84.396780 92.919907
C 63.911350 85.423639 92.777491
C 65.112394 85.114346 92.201153
C 65.439784 83.852494 91.766701
C 64.530198 82.816093 91.903858
C 64.836708 81.527089 91.460326
C 66.165246 81.253802 90.872033
C 67.265604 81.070500 91.858081
C 67.036803 79.902673 92.793926
C 68.191856 79.780224 93.767455
C 64.083873 79.516948 91.281210
C 61.396907 82.329154 93.088531
C 62.044377 84.611321 93.369578
C 63.670650 86.425799 93.118312
C 66.403748 83.712439 91.323387
C 66.502832 82.041752 90.155297
C 66.132327 80.324505 90.240799
C 68.186322 80.852947 91.281033
C 67.466255 81.957476 92.477071
C 67.037059 78.935363 92.209593
C 66.116030 79.942939 93.370340
C 68.365376 80.712249 94.338082
C 69.124155 79.661155 93.139843
C 68.035070 78.884131 94.406643
C 69.741387 67.936849 91.599438
C 69.402288 69.150800 92.201153
C 70.368735 70.033425 92.646151
C 71.708039 69.703938 92.488827
C 72.648130 70.618649 92.937326
C 73.996486 70.338675 92.791587
C 74.329167 69.150800 92.201153
C 73.400079 68.241538 91.755912
C 72.047732 68.509404 91.896248
C 71.084689 67.604756 91.441980
C 71.512300 66.324621 90.838499
C 71.903749 65.268442 91.812118
C 70.777986 64.871617 92.743333
C 71.249482 63.798648 93.704234
C 68.967442 67.253777 91.258699
C 70.059354 70.965229 93.110063
C 72.359496 71.542250 93.397958
C 74.744023 71.044134 93.140780
C 73.760780 67.342007 91.301922
C 72.363476 66.434722 90.123015
C 70.691051 65.895970 90.202148
C 72.175713 64.369195 91.224389
C 72.772215 65.530830 92.434257
C 69.940405 64.394677 92.153315
C 70.352460 65.682280 93.329380
C 72.143394 64.107626 94.278557
C 71.612525 62.939211 93.066408
C 70.395053 63.478831 94.339682
C 77.739551 84.214984 91.594246
C 78.619062 85.114346 92.201153
C 79.865008 84.717750 92.649926
C 80.249920 83.393478 92.491193
C 81.510463 83.035743 92.943604
C 81.942735 81.728364 92.796667
C 81.082555 80.847574 92.201153
C 79.832221 81.198499 91.752023
C 79.387487 82.503291 91.893505
C 78.124203 82.885948 91.435368
C 77.231640 81.876844 90.826411
C 76.509097 81.007662 91.795500
C 75.599095 81.782186 92.725007
C 74.902083 80.835313 93.681306
C 76.762285 84.544424 91.250586
C 80.515547 85.450594 93.117823
C 82.164283 83.746526 93.408185
C 82.926152 81.432969 93.148877
C 79.235255 80.437325 91.294186
C 77.755240 81.196292 90.111405
C 76.452150 82.375096 90.188231
C 75.868503 80.323765 91.203926
C 77.168264 80.385418 92.418756
C 74.769448 82.270337 92.132953
C 76.086198 82.554781 93.314519
C 75.614497 80.214429 94.256946
C 74.341691 80.092552 93.039806
C 74.195537 81.413993 94.315379
C 85.711549 95.597169 91.599438
C 85.372450 96.811120 92.201153
C 86.338897 97.693745 92.646151
C 87.678201 97.364258 92.488827
C 88.618292 98.278970 92.937326
C 89.966648 97.998995 92.791587
C 90.299329 96.811120 92.201153
C 89.370241 95.901858 91.755912
C 88.017894 96.169724 91.896248
C 87.054850 95.265076 91.441980
C 87.482462 93.984941 90.838499
C 87.873910 92.928763 91.812118
C 86.748147 92.531937 92.743333
C 87.219643 91.458968 93.704234
C 84.937604 94.914097 91.258699
C 86.029516 98.625549 93.110063
C 88.329658 99.202570 93.397958
C 90.714185 98.704454 93.140780
C 89.730942 95.002327 91.301922
C 88.333638 94.095042 90.123015
C 86.661213 93.556290 90.202148
C 88.145874 92.029515 91.224389
C 88.742376 93.191150 92.434257
C 85.910566 92.054997 92.153315
C 86.322622 93.342600 93.329380
C 88.113556 91.767946 94.278557
C 87.582687 90.599531 93.066408
C 86.365215 91.139151 94.339682
C 95.816174 80.530735 91.613844
C 94.589223 80.847574 92.201153
C 94.303581 82.128460 92.635677
C 95.260182 83.122657 92.482262
C 94.933540 84.396780 92.919907
C 95.851673 85.423639 92.777491
C 97.052717 85.114346 92.201153
C 97.380108 83.852494 91.766701
C 96.470521 82.816093 91.903858
C 96.777031 81.527089 91.460326
C 98.105569 81.253802 90.872033
C 99.205928 81.070500 91.858081
C 98.977126 79.902673 92.793926
C 100.132180 79.780224 93.767455
C 96.024196 79.516948 91.281210
C 93.337231 82.329154 93.088531
C 93.984700 84.611321 93.369578
C 95.610974 86.425799 93.118312
C 98.344071 83.712439 91.323387
C 98.443155 82.041752 90.155297
C 98.072650 80.324505 90.240799
C 100.126646 80.852947 91.281033
C 99.406579 81.957476 92.477071
C 98.977383 78.935363 92.209593
C 98.056354 79.942939 93.370340
C 100.305699 80.712249 94.338082
C 101.064478 79.661155 93.139843
C 99.975394 78.884131 94.406643
C 42.049745 70.356569 91.583204
C 42.388844 69.150800 92.201153
C 41.422397 68.274226 92.657954
C 40.083093 68.601572 92.496223
C 39.143002 67.692961 92.956954
C 37.794646 67.970955 92.807472
C 37.461965 69.150800 92.201153
C 35.592008 69.552402 91.981942
C 38.391053 70.054006 91.743752
C 39.743400 69.788048 91.887670
C 40.706443 70.686519 91.421304
C 40.278832 71.958442 90.800702
C 39.887383 73.027588 91.760062
C 41.013146 73.436873 92.685869
C 40.541650 74.522638 93.632287
C 42.823689 71.035007 91.233331
C 41.731778 67.348730 93.134326
C 39.431636 66.775623 93.429937
C 37.047109 67.270244 93.166099
C 38.030352 70.947365 91.277734
C 39.427655 71.838751 90.086759
C 41.100081 72.378516 90.158657
C 39.615419 73.918869 91.160320
C 39.018917 72.773572 92.385665
C 41.850727 73.905853 92.089505
C 41.438672 72.634146 93.282739
C 39.647738 74.221394 94.210703
C 40.178607 75.373440 92.982987
C 41.396079 74.850953 94.263386
C 47.925492 57.764971 91.589938
C 49.142232 57.454026 92.201153
C 49.420323 56.177501 92.653058
C 48.466391 55.181762 92.493155
C 48.785423 53.912033 92.948812
C 47.869764 52.883745 92.800882
C 46.678738 53.187254 92.201153
C 46.358902 54.444744 91.748796
C 47.266107 55.482521 91.891229
C 46.967305 56.767074 91.429881
C 45.649005 57.034450 90.816382
C 44.532023 57.227350 91.781690
C 44.744946 58.404344 92.709765
C 43.573486 58.536266 93.662224
C 47.723251 58.775419 91.243854
C 50.378802 55.981351 93.124261
C 49.726447 53.702005 93.416671
C 48.104538 51.885006 93.155596
C 45.402643 54.580352 91.287768
C 45.323613 56.239460 90.101783
C 45.692751 57.957496 90.176690
C 43.621288 57.439139 91.186928
C 44.320782 56.346488 92.405866
C 44.754726 59.365860 92.116026
C 45.655762 58.369827 93.302149
C 43.390192 57.609885 94.238951
C 42.652025 58.649078 93.017679
C 43.719435 59.438616 94.295145
C 61.769389 56.554664 91.594246
C 62.648900 57.454026 92.201153
C 63.894847 57.057430 92.649926
C 64.279758 55.733158 92.491193
C 65.540301 55.375423 92.943604
C 65.972573 54.068044 92.796667
C 65.112394 53.187254 92.201153
C 63.862059 53.538179 91.752023
C 63.417325 54.842971 91.893505
C 62.154042 55.225628 91.435368
C 61.261479 54.216524 90.826411
C 60.538935 53.347342 91.795500
C 59.628933 54.121866 92.725007
C 58.931921 53.174993 93.681306
C 60.792124 56.884104 91.250586
C 64.545386 57.790274 93.117823
C 66.194121 56.086206 93.408185
C 66.955990 53.772649 93.148877
C 63.265093 52.777005 91.294186
C 61.785078 53.535972 90.111405
C 60.481988 54.714775 90.188231
C 59.898341 52.663445 91.203926
C 61.198102 52.725098 92.418756
C 58.799286 54.610017 92.132953
C 60.116036 54.894461 93.314519
C 59.644336 52.554109 94.256946
C 58.371529 52.432232 93.039806
C 58.225375 53.753673 94.315379
C 93.709712 56.554664 91.594246
C 94.589223 57.454026 92.201153
C 95.835170 57.057430 92.649926
C 96.220081 55.733158 92.491193
C 97.480624 55.375423 92.943604
C 97.912896 54.068044 92.796667
C 97.052717 53.187254 92.201153
C 95.802383 53.538179 91.752023
C 95.357649 54.842971 91.893505
C 94.094365 55.225628 91.435368
C 93.201802 54.216524 90.826411
C 92.479259 53.347342 91.795500
C 91.569257 54.121866 92.725007
C 90.872244 53.174993 93.681306
C 92.732447 56.884104 91.250586
C 96.485709 57.790274 93.117823
C 98.134445 56.086206 93.408185
C 98.896314 53.772649 93.148877
C 95.205416 52.777005 91.294186
C 93.725401 53.535972 90.111405
C 92.422311 54.714775 90.188231
C 91.838665 52.663445 91.203926
C 93.138425 52.725098 92.418756
C 90.739609 54.610017 92.132953
C 92.056359 54.894461 93.314519
C 91.584659 52.554109 94.256946
C 90.311853 52.432232 93.039806
C 90.165699 53.753673 94.315379
C 79.865815 57.764971 91.589938
C 81.082555 57.454026 92.201153
C 81.360646 56.177501 92.653058
C 80.406714 55.181762 92.493155
C 80.725746 53.912033 92.948812
C 79.810087 52.883745 92.800882
C 78.619062 53.187254 92.201153
C 78.299225 54.444744 91.748796
C 79.206430 55.482521 91.891229
C 78.907629 56.767074 91.429881
C 77.589329 57.034450 90.816382
C 76.472347 57.227350 91.781690
C 76.685270 58.404344 92.709765
C 75.513809 58.536266 93.662224
C 79.663575 58.775419 91.243854
C 82.319125 55.981351 93.124261
C 81.666770 53.702005 93.416671
C 80.044861 51.885006 93.155596
C 77.342966 54.580352 91.287768
C 77.263936 56.239460 90.101783
C 77.633074 57.957496 90.176690
C 75.561611 57.439139 91.186928
C 76.261106 56.346488 92.405866
C 76.695049 59.365860 92.116026
C 77.596086 58.369827 93.302149
C 75.330516 57.609885 94.238951
C 74.592348 58.649078 93.017679
C 75.659758 59.438616 94.295145
C 58.019906 98.016889 91.583204
C 58.359006 96.811120 92.201153
C 57.392559 95.934546 92.657954
C 56.053254 96.261892 92.496223
C 55.113164 95.353281 92.956954
C 53.764807 95.631275 92.807472
C 53.432126 96.811120 92.201153
C 51.562169 97.212722 91.981942
C 54.361215 97.714326 91.743752
C 55.713562 97.448368 91.887670
C 56.676605 98.346839 91.421304
C 56.248993 99.618762 90.800702
C 55.857545 100.687909 91.760062
C 56.983308 101.097193 92.685869
C 56.511812 102.182958 93.632287
C 58.793851 98.695327 91.233331
C 57.701939 95.009050 93.134326
C 55.401798 94.435943 93.429937
C 53.017270 94.930564 93.166099
C 54.000513 98.607685 91.277734
C 55.397817 99.499071 90.086759
C 57.070242 100.038836 90.158657
C 55.585581 101.579189 91.160320
C 54.989079 100.433892 92.385665
C 57.820889 101.566173 92.089505
C 57.408834 100.294466 93.282739
C 55.617899 101.881714 94.210703
C 56.148769 103.033760 92.982987
C 57.366241 102.511273 94.263386
C 109.679874 84.214984 91.594246
C 110.559385 85.114346 92.201153
C 111.805332 84.717750 92.649926
C 112.190243 83.393478 92.491193
C 113.450786 83.035743 92.943604
C 113.883058 81.728364 92.796667
C 113.022879 80.847574 92.201153
C 111.772544 81.198499 91.752023
C 111.327810 82.503291 91.893505
C 110.064527 82.885948 91.435368
C 109.171964 81.876844 90.826411
C 108.449420 81.007662 91.795500
C 107.539418 81.782186 92.725007
C 106.842406 80.835313 93.681306
C 108.702609 84.544424 91.250586
C 112.455871 85.450594 93.117823
C 114.104606 83.746526 93.408185
C 114.866475 81.432969 93.148877
C 111.175578 80.437325 91.294186
C 109.695563 81.196292 90.111405
C 108.392473 82.375096 90.188231
C 107.808827 80.323765 91.203926
C 109.108587 80.385418 92.418756
C 106.709771 82.270337 92.132953
C 108.026521 82.554781 93.314519
C 107.554821 80.214429 94.256946
C 106.282014 80.092552 93.039806
C 106.135861 81.413993 94.315379
C 95.816174 25.210094 91.613844
C 94.589223 25.526934 92.201153
C 94.303581 26.807820 92.635677
C 95.260182 27.802017 92.482262
C 94.933540 29.076140 92.919907
C 95.851673 30.102999 92.777491
C 97.052717 29.793706 92.201153
C 97.380108 28.531854 91.766701
C 96.470521 27.495453 91.903858
C 96.777031 26.206449 91.460326
C 98.105569 25.933162 90.872033
C 99.205928 25.749860 91.858081
C 98.977126 24.582033 92.793926
C 100.132180 24.459584 93.767455
C 96.024196 24.196308 91.281210
C 93.337231 27.008514 93.088531
C 93.984700 29.290681 93.369578
C 95.610974 31.105159 93.118312
C 98.344071 28.391798 91.323387
C 98.443155 26.721112 90.155297
C 98.072650 25.003864 90.240799
C 100.126646 25.532307 91.281033
C 99.406579 26.636836 92.477071
C 98.977383 23.614723 92.209593
C 98.056354 24.622299 93.370340
C 100.305699 25.391609 94.338082
C 101.064478 24.340515 93.139843
C 99.975394 23.563491 94.406643
C 101.681711 12.616209 91.599438
C 101.342611 13.830160 92.201153
C 102.309058 14.712785 92.646151
C 103.648363 14.383298 92.488827
C 104.588453 15.298009 92.937326
C 105.936810 15.018035 92.791587
C 106.269491 13.830160 92.201153
C 105.340402 12.920898 91.755912
C 103.988055 13.188764 91.896248
C 103.025012 12.284115 91.441980
C 103.452624 11.003980 90.838499
C 103.844072 9.947802 91.812118
C 102.718309 9.550977 92.743333
C 103.189805 8.478008 93.704234
C 100.907766 11.933137 91.258699
C 101.999678 15.644589 93.110063
C 104.299819 16.221610 93.397958
C 106.684347 15.723494 93.140780
C 105.701104 12.021367 91.301922
C 104.303800 11.114082 90.123015
C 102.631375 10.575329 90.202148
C 104.116036 9.048555 91.224389
C 104.712538 10.210190 92.434257
C 101.880728 9.074037 92.153315
C 102.292783 10.361640 93.329380
C 104.083718 8.786986 94.278557
C 103.552848 7.618571 93.066408
C 102.335376 8.158191 94.339682
C 109.679874 28.894344 91.594246
C 110.559385 29.793706 92.201153
C 111.805332 29.397110 92.649926
C 112.190243 28.072838 92.491193
C 113.450786 27.715103 92.943604
C 113.883058 26.407723 92.796667
C 113.022879 25.526934 92.201153
C 111.772544 25.877859 91.752023
C 111.327810 27.182651 91.893505
C 110.064527 27.565308 91.435368
C 109.171964 26.556204 90.826411
C 108.449420 25.687022 91.795500
C 107.539418 26.461546 92.725007
C 106.842406 25.514673 93.681306
C 108.702609 29.223784 91.250586
C 112.455871 30.129954 93.117823
C 114.104606 28.425886 93.408185
C 114.866475 26.112329 93.148877
C 111.175578 25.116685 91.294186
C 109.695563 25.875652 90.111405
C 108.392473 27.054455 90.188231
C 107.808827 25.003125 91.203926
C 109.108587 25.064778 92.418756
C 106.709771 26.949697 92.132953
C 108.026521 27.234141 93.314519
C 107.554821 24.893789 94.256946
C 106.282014 24.771912 93.039806
C 106.135861 26.093353 94.315379
C 117.651872 40.276529 91.599438
C 117.312773 41.490480 92.201153
C 118.279220 42.373105 92.646151
C 119.618524 42.043618 92.488827
C 120.558615 42.958329 92.937326
C 121.906971 42.678355 92.791587
C 122.239652 41.490480 92.201153
C 121.310564 40.581218 91.755912
C 119.958217 40.849084 91.896248
C 118.995174 39.944436 91.441980
C 119.422785 38.664300 90.838499
C 119.814234 37.608122 91.812118
C 118.688471 37.211297 92.743333
C 119.159967 36.138328 93.704234
C 116.877928 39.593457 91.258699
C 117.969839 43.304909 93.110063
C 120.269981 43.881930 93.397958
C 122.654508 43.383814 93.140780
C 121.671265 39.681687 91.301922
C 120.273962 38.774402 90.123015
C 118.601536 38.235649 90.202148
C 120.086198 36.708875 91.224389
C 120.682700 37.870510 92.434257
C 117.850890 36.734357 92.153315
C 118.262945 38.021960 93.329380
C 120.053879 36.447306 94.278557
C 119.523010 35.278891 93.066408
C 118.305538 35.818511 94.339682
C 127.756497 25.210094 91.613844
C 126.529547 25.526934 92.201153
C 126.243905 26.807820 92.635677
C 127.200506 27.802017 92.482262
C 126.873864 29.076140 92.919907
C 127.791996 30.102999 92.777491
C 128.993041 29.793706 92.201153
C 129.320431 28.531854 91.766701
C 128.410845 27.495453 91.903858
C 128.717355 26.206449 91.460326
C 130.045893 25.933162 90.872033
C 131.146251 25.749860 91.858081
C 130.917450 24.582033 92.793926
C 132.072503 24.459584 93.767455
C 127.964519 24.196308 91.281210
C 125.277554 27.008514 93.088531
C 125.925023 29.290681 93.369578
C 127.551297 31.105159 93.118312
C 130.284395 28.391798 91.323387
C 130.383478 26.721112 90.155297
C 130.012974 25.003864 90.240799
C 132.066969 25.532307 91.281033
C 131.346902 26.636836 92.477071
C 130.917706 23.614723 92.209593
C 129.996677 24.622299 93.370340
C 132.246023 25.391609 94.338082
C 133.004801 24.340515 93.139843
C 131.915717 23.563491 94.406643
C 73.990068 15.035929 91.583204
C 74.329167 13.830160 92.201153
C 73.362720 12.953586 92.657954
C 72.023416 13.280932 92.496223
C 71.083325 12.372320 92.956954
C 69.734969 12.650315 92.807472
C 69.402288 13.830160 92.201153
C 70.331376 14.733366 91.743752
C 71.683723 14.467408 91.887670
C 72.646767 15.365879 91.421304
C 72.219155 16.637802 90.800702
C 71.827707 17.706948 91.760062
C 72.953470 18.116233 92.685869
C 72.481974 19.201998 93.632287
C 74.764013 15.714367 91.233331
C 73.672101 12.028090 93.134326
C 71.371959 11.454983 93.429937
C 68.987432 11.949604 93.166099
C 69.970675 15.626725 91.277734
C 71.367979 16.518111 90.086759
C 73.040404 17.057876 90.158657
C 71.555743 18.598229 91.160320
C 70.959241 17.452932 92.385665
C 73.791051 18.585213 92.089505
C 73.378995 17.313506 93.282739
C 71.588061 18.900754 94.210703
C 72.118930 20.052799 92.982987
C 73.336402 19.530313 94.263386
C 79.865815 2.444331 91.589938
C 81.082555 2.133386 92.201153
C 81.360646 0.856860 92.653058
C 80.406714 -0.138878 92.493155
C 80.725746 -1.408608 92.948812
C 79.810087 -2.436895 92.800882
C 78.619062 -2.133386 92.201153
C 77.335214 -3.551391 91.984185
C 78.299225 -0.875896 91.748796
C 79.206430 0.161881 91.891229
C 78.907629 1.446434 91.429881
C 77.589329 1.713810 90.816382
C 76.472347 1.906710 91.781690
C 76.685270 3.083704 92.709765
C 75.513809 3.215626 93.662224
C 79.663575 3.454779 91.243854
C 82.319125 0.660711 93.124261
C 81.666770 -1.618635 93.416671
C 80.044861 -3.435634 93.155596
C 77.342966 -0.740288 91.287768
C 77.263936 0.918820 90.101783
C 77.633074 2.636856 90.176690
C 75.561611 2.118499 91.186928
C 76.261106 1.025848 92.405866
C 76.695049 4.045220 92.116026
C 77.596086 3.049187 93.302149
C 75.330516 2.289245 94.238951
C 74.592348 3.328438 93.017679
C 75.659758 4.117976 94.295145
C 93.709712 1.234024 91.594246
C 94.589223 2.133386 92.201153
C 95.835170 1.736790 92.649926
C 96.220081 0.412518 92.491193
C 97.480624 0.054783 92.943604
C 97.912896 -1.252597 92.796667
C 97.052717 -2.133386 92.201153
C 97.638202 -3.954602 91.985620
C 95.802383 -1.782461 91.752023
C 95.357649 -0.477669 91.893505
C 94.094365 -0.095012 91.435368
C 93.201802 -1.104116 90.826411
C 92.479259 -1.973298 91.795500
C 91.569257 -1.198774 92.725007
C 90.872244 -2.145647 93.681306
C 92.732447 1.563464 91.250586
C 96.485709 2.469634 93.117823
C 98.134445 0.765566 93.408185
C 98.896314 -1.547991 93.148877
C 95.205416 -2.543635 91.294186
C 93.725401 -1.784668 90.111405
C 92.422311 -0.605865 90.188231
C 91.838665 -2.657195 91.203926
C 93.138425 -2.595542 92.418756
C 90.739609 -0.710623 92.132953
C 92.056359 -0.426179 93.314519
C 91.584659 -2.766531 94.256946
C 90.311853 -2.888408 93.039806
C 90.165699 -1.566967 94.315379
C 125.650036 1.234024 91.594246
C 126.529547 2.133386 92.201153
C 127.775493 1.736790 92.649926
C 128.160405 0.412518 92.491193
C 129.420948 0.054783 92.943604
C 129.853220 -1.252597 92.796667
C 128.993041 -2.133386 92.201153
C 129.578525 -3.954602 91.985620
C 127.742706 -1.782461 91.752023
C 127.297972 -0.477669 91.893505
C 126.034689 -0.095012 91.435368
C 125.142125 -1.104116 90.826411
C 124.419582 -1.973298 91.795500
C 123.509580 -1.198774 92.725007
C 122.812568 -2.145647 93.681306
C 124.672770 1.563464 91.250586
C 128.426032 2.469634 93.117823
C 130.074768 0.765566 93.408185
C 130.836637 -1.547991 93.148877
C 127.145740 -2.543635 91.294186
C 125.665725 -1.784668 90.111405
C 124.362635 -0.605865 90.188231
C 123.778988 -2.657195 91.203926
C 125.078749 -2.595542 92.418756
C 122.679933 -0.710623 92.132953
C 123.996683 -0.426179 93.314519
C 123.524982 -2.766531 94.256946
C 122.252176 -2.888408 93.039806
C 122.106022 -1.566967 94.315379
C 111.806139 2.444331 91.589938
C 113.022879 2.133386 92.201153
C 113.300969 0.856860 92.653058
C 112.347038 -0.138878 92.493155
C 112.666070 -1.408608 92.948812
C 111.750410 -2.436895 92.800882
C 110.559385 -2.133386 92.201153
C 109.275538 -3.551391 91.984185
C 110.239549 -0.875896 91.748796
C 111.146754 0.161881 91.891229
C 110.847952 1.446434 91.429881
C 109.529652 1.713810 90.816382
C 108.412670 1.906710 91.781690
C 108.625593 3.083704 92.709765
C 107.454133 3.215626 93.662224
C 111.603898 3.454779 91.243854
C 114.259448 0.660711 93.124261
C 113.607094 -1.618635 93.416671
C 111.985185 -3.435634 93.155596
C 109.283289 -0.740288 91.287768
C 109.204260 0.918820 90.101783
C 109.573398 2.636856 90.176690
C 107.501935 2.118499 91.186928
C 108.201429 1.025848 92.405866
C 108.635373 4.045220 92.116026
C 109.536409 3.049187 93.302149
C 107.270839 2.289245 94.238951
C 106.532672 3.328438 93.017679
C 107.600082 4.117976 94.295145
C 89.960230 42.696249 91.583204
C 90.299329 41.490480 92.201153
C 89.332882 40.613906 92.657954
C 87.993578 40.941252 92.496223
C 87.053487 40.032640 92.956954
C 85.705131 40.310635 92.807472
C 85.372450 41.490480 92.201153
C 86.301538 42.393686 91.743752
C 87.653885 42.127728 91.887670
C 88.616928 43.026199 91.421304
C 88.189317 44.298122 90.800702
C 87.797868 45.367268 91.760062
C 88.923631 45.776553 92.685869
C 88.452135 46.862318 93.632287
C 90.734175 43.374687 91.233331
C 89.642263 39.688410 93.134326
C 87.342121 39.115303 93.429937
C 84.957594 39.609924 93.166099
C 85.940837 43.287045 91.277734
C 87.338141 44.178431 90.086759
C 89.010566 44.718196 90.158657
C 87.525904 46.258549 91.160320
C 86.929402 45.113252 92.385665
C 89.761212 46.245533 92.089505
C 89.349157 44.973826 93.282739
C 87.558223 46.561074 94.210703
C 88.089092 47.713120 92.982987
C 89.306564 47.190633 94.263386
C 141.620197 28.894344 91.594246
C 142.499708 29.793706 92.201153
C 143.745655 29.397110 92.649926
C 144.130566 28.072838 92.491193
C 145.391109 27.715103 92.943604
C 145.823381 26.407723 92.796667
C 144.963202 25.526934 92.201153
C 145.548687 23.705718 91.985620
C 143.712868 25.877859 91.752023
C 143.268134 27.182651 91.893505
C 142.004850 27.565308 91.435368
C 141.112287 26.556204 90.826411
C 140.389744 25.687022 91.795500
C 139.479742 26.461546 92.725007
C 138.782729 25.514673 93.681306
C 140.642932 29.223784 91.250586
C 144.396194 30.129954 93.117823
C 146.044930 28.425886 93.408185
C 146.806799 26.112329 93.148877
C 143.115901 25.116685 91.294186
C 141.635886 25.875652 90.111405
C 140.332797 27.054455 90.188231
C 139.749150 25.003125 91.203926
C 141.048910 25.064778 92.418756
C 138.650095 26.949697 92.132953
C 139.966844 27.234141 93.314519
C 139.495144 24.893789 94.256946
C 138.222338 24.771912 93.039806
C 138.076184 26.093353 94.315379
C 127.756497 80.530735 91.613844
C 126.529547 80.847574 92.201153
C 126.243905 82.128460 92.635677
C 127.200506 83.122657 92.482262
C 126.873864 84.396780 92.919907
C 127.791996 85.423639 92.777491
C 128.993041 85.114346 92.201153
C 129.320431 83.852494 91.766701
C 128.410845 82.816093 91.903858
C 128.717355 81.527089 91.460326
C 130.045893 81.253802 90.872033
C 131.146251 81.070500 91.858081
C 130.917450 79.902673 92.793926
C 132.072503 79.780224 93.767455
C 127.964519 79.516948 91.281210
C 125.277554 82.329154 93.088531
C 125.925023 84.611321 93.369578
C 127.551297 86.425799 93.118312
C 130.284395 83.712439 91.323387
C 130.383478 82.041752 90.155297
C 130.012974 80.324505 90.240799
C 132.066969 80.852947 91.281033
C 131.346902 81.957476 92.477071
C 130.917706 78.935363 92.209593
C 129.996677 79.942939 93.370340
C 132.246023 80.712249 94.338082
C 133.004801 79.661155 93.139843
C 131.915717 78.884131 94.406643
C 133.622034 67.936849 91.599438
C 133.282935 69.150800 92.201153
C 134.249382 70.033425 92.646151
C 135.588686 69.703938 92.488827
C 136.528777 70.618649 92.937326
C 137.877133 70.338675 92.791587
C 138.209814 69.150800 92.201153
C 137.280726 68.241538 91.755912
C 135.928379 68.509404 91.896248
C 134.965335 67.604756 91.441980
C 135.392947 66.324621 90.838499
C 135.784395 65.268442 91.812118
C 134.658632 64.871617 92.743333
C 135.130128 63.798648 93.704234
C 132.848089 67.253777 91.258699
C 133.940001 70.965229 93.110063
C 136.240143 71.542250 93.397958
C 138.624670 71.044134 93.140780
C 137.641427 67.342007 91.301922
C 136.244123 66.434722 90.123015
C 134.571698 65.895970 90.202148
C 136.056359 64.369195 91.224389
C 136.652861 65.530830 92.434257
C 133.821052 64.394677 92.153315
C 134.233107 65.682280 93.329380
C 136.024041 64.107626 94.278557
C 135.493172 62.939211 93.066408
C 134.275700 63.478831 94.339682
C 141.620197 84.214984 91.594246
C 142.499708 85.114346 92.201153
C 143.745655 84.717750 92.649926
C 144.130566 83.393478 92.491193
C 145.391109 83.035743 92.943604
C 145.823381 81.728364 92.796667
C 144.963202 80.847574 92.201153
C 143.712868 81.198499 91.752023
C 143.268134 82.503291 91.893505
C 142.004850 82.885948 91.435368
C 141.112287 81.876844 90.826411
C 140.389744 81.007662 91.795500
C 139.479742 81.782186 92.725007
C 138.782729 80.835313 93.681306
C 140.642932 84.544424 91.250586
C 144.396194 85.450594 93.117823
C 146.044930 83.746526 93.408185
C 146.806799 81.432969 93.148877
C 143.115901 80.437325 91.294186
C 141.635886 81.196292 90.111405
C 140.332797 82.375096 90.188231
C 139.749150 80.323765 91.203926
C 141.048910 80.385418 92.418756
C 138.650095 82.270337 92.132953
C 139.966844 82.554781 93.314519
C 139.495144 80.214429 94.256946
C 138.222338 80.092552 93.039806
C 138.076184 81.413993 94.315379
C 149.592196 95.597169 91.599438
C 149.253096 96.811120 92.201153
C 150.219543 97.693745 92.646151
C 151.558848 97.364258 92.488827
C 152.498939 98.278970 92.937326
C 153.847295 97.998995 92.791587
C 154.179976 96.811120 92.201153
C 153.250887 95.901858 91.755912
C 151.898540 96.169724 91.896248
C 150.935497 95.265076 91.441980
C 151.363109 93.984941 90.838499
C 151.754557 92.928763 91.812118
C 150.628794 92.531937 92.743333
C 151.100290 91.458968 93.704234
C 148.818251 94.914097 91.258699
C 149.910163 98.625549 93.110063
C 152.210304 99.202570 93.397958
C 154.594832 98.704454 93.140780
C 153.611589 95.002327 91.301922
C 152.214285 94.095042 90.123015
C 150.541860 93.556290 90.202148
C 152.026521 92.029515 91.224389
C 152.623023 93.191150 92.434257
C 149.791213 92.054997 92.153315
C 150.203268 93.342600 93.329380
C 151.994203 91.767946 94.278557
C 151.463333 90.599531 93.066408
C 150.245861 91.139151 94.339682
C 159.696820 80.530735 91.613844
C 158.469870 80.847574 92.201153
C 158.184228 82.128460 92.635677
C 159.140829 83.122657 92.482262
C 158.814187 84.396780 92.919907
C 159.732320 85.423639 92.777491
C 160.933364 85.114346 92.201153
C 161.260755 83.852494 91.766701
C 160.351168 82.816093 91.903858
C 160.657678 81.527089 91.460326
C 161.986216 81.253802 90.872033
C 163.086575 81.070500 91.858081
C 162.857773 79.902673 92.793926
C 164.012827 79.780224 93.767455
C 159.904843 79.516948 91.281210
C 157.217877 82.329154 93.088531
C 157.865347 84.611321 93.369578
C 159.491620 86.425799 93.118312
C 162.224718 83.712439 91.323387
C 162.323802 82.041752 90.155297
C 161.953297 80.324505 90.240799
C 164.007292 80.852947 91.281033
C 163.287225 81.957476 92.477071
C 162.858029 78.935363 92.209593
C 161.937000 79.942939 93.370340
C 164.186346 80.712249 94.338082
C 164.945125 79.661155 93.139843
C 163.856040 78.884131 94.406643
C 105.930391 70.356569 91.583204
C 106.269491 69.150800 92.201153
C 105.303044 68.274226 92.657954
C 103.963739 68.601572 92.496223
C 103.023649 67.692961 92.956954
C 101.675292 67.970955 92.807472
C 101.342611 69.150800 92.201153
C 102.271700 70.054006 91.743752
C 103.624047 69.788048 91.887670
C 104.587090 70.686519 91.421304
C 104.159479 71.958442 90.800702
C 103.768030 73.027588 91.760062
C 104.893793 73.436873 92.685869
C 104.422297 74.522638 93.632287
C 106.704336 71.035007 91.233331
C 105.612424 67.348730 93.134326
C 103.312283 66.775623 93.429937
C 100.927755 67.270244 93.166099
C 101.910999 70.947365 91.277734
C 103.308302 71.838751 90.086759
C 104.980727 72.378516 90.158657
C 103.496066 73.918869 91.160320
C 102.899564 72.773572 92.385665
C 105.731374 73.905853 92.089505
C 105.319319 72.634146 93.282739
C 103.528385 74.221394 94.210703
C 104.059254 75.373440 92.982987
C 105.276726 74.850953 94.263386
C 111.806139 57.764971 91.589938
C 113.022879 57.454026 92.201153
C 113.300969 56.177501 92.653058
C 112.347038 55.181762 92.493155
C 112.666070 53.912033 92.948812
C 111.750410 52.883745 92.800882
C 110.559385 53.187254 92.201153
C 110.239549 54.444744 91.748796
C 111.146754 55.482521 91.891229
C 110.847952 56.767074 91.429881
C 109.529652 57.034450 90.816382
C 108.412670 57.227350 91.781690
C 108.625593 58.404344 92.709765
C 107.454133 58.536266 93.662224
C 111.603898 58.775419 91.243854
C 114.259448 55.981351 93.124261
C 113.607094 53.702005 93.416671
C 111.985185 51.885006 93.155596
C 109.283289 54.580352 91.287768
C 109.204260 56.239460 90.101783
C 109.573398 57.957496 90.176690
C 107.501935 57.439139 91.186928
C 108.201429 56.346488 92.405866
C 108.635373 59.365860 92.116026
C 109.536409 58.369827 93.302149
C 107.270839 57.609885 94.238951
C 106.532672 58.649078 93.017679
C 107.600082 59.438616 94.295145
C 125.650036 56.554664 91.594246
C 126.529547 57.454026 92.201153
C 127.775493 57.057430 92.649926
C 128.160405 55.733158 92.491193
C 129.420948 55.375423 92.943604
C 129.853220 54.068044 92.796667
C 128.993041 53.187254 92.201153
C 127.742706 53.538179 91.752023
C 127.297972 54.842971 91.893505
C 126.034689 55.225628 91.435368
C 125.142125 54.216524 90.826411
C 124.419582 53.347342 91.795500
C 123.509580 54.121866 92.725007
C 122.812568 53.174993 93.681306
C 124.672770 56.884104 91.250586
C 128.426032 57.790274 93.117823
C 130.074768 56.086206 93.408185
C 130.836637 53.772649 93.148877
C 127.145740 52.777005 91.294186
C 125.665725 53.535972 90.111405
C 124.362635 54.714775 90.188231
C 123.778988 52.663445 91.203926
C 125.078749 52.725098 92.418756
C 122.679933 54.610017 92.132953
C 123.996683 54.894461 93.314519
C 123.524982 52.554109 94.256946
C 122.252176 52.432232 93.039806
C 122.106022 53.753673 94.315379
C 157.590359 56.554664 91.594246
C 158.469870 57.454026 92.201153
C 159.715817 57.057430 92.649926
C 160.100728 55.733158 92.491193
C 161.361271 55.375423 92.943604
C 161.793543 54.068044 92.796667
C 160.933364 53.187254 92.201153
C 161.518848 51.366038 91.985620
C 159.683030 53.538179 91.752023
C 159.238295 54.842971 91.893505
C 157.975012 55.225628 91.435368
C 157.082449 54.216524 90.826411
C 156.359905 53.347342 91.795500
C 155.449903 54.121866 92.725007
C 154.752891 53.174993 93.681306
C 156.613094 56.884104 91.250586
C 160.366356 57.790274 93.117823
C 162.015091 56.086206 93.408185
C 162.776961 53.772649 93.148877
C 159.086063 52.777005 91.294186
C 157.606048 53.535972 90.111405
C 156.302958 54.714775 90.188231
C 155.719312 52.663445 91.203926
C 157.019072 52.725098 92.418756
C 154.620256 54.610017 92.132953
C 155.937006 54.894461 93.314519
C 155.465306 52.554109 94.256946
C 154.192499 52.432232 93.039806
C 154.046346 53.753673 94.315379
C 143.746462 57.764971 91.589938
C 144.963202 57.454026 92.201153
C 145.241293 56.177501 92.653058
C 144.287361 55.181762 92.493155
C 144.606393 53.912033 92.948812
C 143.690734 52.883745 92.800882
C 142.499708 53.187254 92.201153
C 142.179872 54.444744 91.748796
C 143.087077 55.482521 91.891229
C 142.788275 56.767074 91.429881
C 141.469975 57.034450 90.816382
C 140.352994 57.227350 91.781690
C 140.565916 58.404344 92.709765
C 139.394456 58.536266 93.662224
C 143.544222 58.775419 91.243854
C 146.199772 55.981351 93.124261
C 145.547417 53.702005 93.416671
C 143.925508 51.885006 93.155596
C 141.223613 54.580352 91.287768
C 141.144583 56.239460 90.101783
C 141.513721 57.957496 90.176690
C 139.442258 57.439139 91.186928
C 140.141753 56.346488 92.405866
C 140.575696 59.365860 92.116026
C 141.476733 58.369827 93.302149
C 139.211162 57.609885 94.238951
C 138.472995 58.649078 93.017679
C 139.540405 59.438616 94.295145
C 121.900553 98.016889 91.583204
C 122.239652 96.811120 92.201153
C 121.273206 95.934546 92.657954
C 119.933901 96.261892 92.496223
C 118.993810 95.353281 92.956954
C 117.645454 95.631275 92.807472
C 117.312773 96.811120 92.201153
C 118.241862 97.714326 91.743752
C 119.594208 97.448368 91.887670
C 120.557252 98.346839 91.421304
C 120.129640 99.618762 90.800702
C 119.738192 100.687909 91.760062
C 120.863955 101.097193 92.685869
C 120.392459 102.182958 93.632287
C 122.674498 98.695327 91.233331
C 121.582586 95.009050 93.134326
C 119.282445 94.435943 93.429937
C 116.897917 94.930564 93.166099
C 117.881160 98.607685 91.277734
C 119.278464 99.499071 90.086759
C 120.950889 100.038836 90.158657
C 119.466228 101.579189 91.160320
C 118.869726 100.433892 92.385665
C 121.701536 101.566173 92.089505
C 121.289481 100.294466 93.282739
C 119.498546 101.881714 94.210703
C 120.029416 103.033760 92.982987
C 121.246887 102.511273 94.263386
C 173.560521 84.214984 91.594246
C 174.440032 85.114346 92.201153
C 175.685979 84.717750 92.649926
C 176.070890 83.393478 92.491193
C 177.331433 83.035743 92.943604
C 177.763705 81.728364 92.796667
C 176.903526 80.847574 92.201153
C 177.489010 79.026358 91.985620
C 175.653191 81.198499 91.752023
C 175.208457 82.503291 91.893505
C 173.945174 82.885948 91.435368
C 173.052611 81.876844 90.826411
C 172.330067 81.007662 91.795500
C 171.420065 81.782186 92.725007
C 170.723053 80.835313 93.681306
C 172.583255 84.544424 91.250586
C 176.336518 85.450594 93.117823
C 177.985253 83.746526 93.408185
C 178.747122 81.432969 93.148877
C 175.056225 80.437325 91.294186
C 173.576210 81.196292 90.111405
C 172.273120 82.375096 90.188231
C 171.689473 80.323765 91.203926
C 172.989234 80.385418 92.418756
C 170.590418 82.270337 92.132953
C 171.907168 82.554781 93.314519
C 171.435468 80.214429 94.256946
C 170.162661 80.092552 93.039806
C 170.016507 81.413993 94.315379
