336

C 53.148720 31.715514 71.778124
C 53.806134 32.854155 71.778124
C 54.993082 32.059866 71.778167
C 54.352454 30.972591 71.778143
C 55.613097 28.316765 71.778124
C 56.927896 28.316765 71.778124
C 56.833514 26.891692 71.778168
C 55.571592 26.902839 71.778143
C 58.714049 32.818111 71.778124
C 59.371463 31.679469 71.778124
C 58.090131 31.048654 71.778168
C 57.468809 32.147076 71.778143
C 60.425373 36.651628 71.778124
C 61.740173 36.651628 71.778124
C 61.645791 35.226555 71.778168
C 60.383868 35.237702 71.778143
C 62.773273 31.715514 71.778124
C 63.430688 32.854155 71.778124
C 64.617635 32.059866 71.778167
C 63.977007 30.972591 71.778143
C 47.261722 27.447209 71.778124
C 45.946923 27.447209 71.778124
C 46.041305 28.872282 71.778168
C 47.303227 28.861135 71.778143
C 62.773273 48.385240 71.778124
C 63.430688 49.523882 71.778124
C 64.617635 48.729593 71.778167
C 63.977007 47.642317 71.778143
C 65.237650 44.986491 71.778124
C 66.552450 44.986491 71.778124
C 66.458067 43.561419 71.778168
C 65.196145 43.572565 71.778143
C 70.049927 53.321354 71.778124
C 71.364726 53.321354 71.778124
C 71.270344 51.896282 71.778168
C 70.008422 51.907428 71.778143
C 72.397827 48.385240 71.778124
C 73.055241 49.523882 71.778124
C 74.242189 48.729593 71.778167
C 73.601560 47.642317 71.778143
C 61.698552 52.451798 71.778124
C 60.383753 52.451798 71.778124
C 60.478135 53.876871 71.778168
C 61.740057 53.865724 71.778143
C 72.397827 31.715514 71.778124
C 73.055241 32.854155 71.778124
C 74.242189 32.059866 71.778167
C 73.601560 30.972591 71.778143
C 77.963155 32.818111 71.778124
C 78.620570 31.679469 71.778124
C 77.339237 31.048654 71.778168
C 76.717916 32.147076 71.778143
C 82.022380 31.715514 71.778124
C 82.679794 32.854155 71.778124
C 83.866742 32.059866 71.778167
C 83.226114 30.972591 71.778143
C 66.510829 27.447209 71.778124
C 65.196029 27.447209 71.778124
C 65.290412 28.872282 71.778168
C 66.552334 28.861135 71.778143
C 68.975206 24.048460 71.778124
C 68.317791 22.909819 71.778124
C 67.130843 23.704108 71.778168
C 67.771472 24.791383 71.778143
C 73.150879 24.483248 71.778124
C 73.808293 23.344606 71.778124
C 72.526961 22.713791 71.778168
C 71.905639 23.812213 71.778143
C 71.323105 35.782072 71.778124
C 70.008306 35.782072 71.778124
C 70.102688 37.207145 71.778168
C 71.364610 37.195998 71.778143
C 87.587709 32.818111 71.778124
C 88.245123 31.679469 71.778124
C 86.963791 31.048654 71.778168
C 86.342469 32.147076 71.778143
C 82.022380 48.385240 71.778124
C 82.679794 49.523882 71.778124
C 83.866742 48.729593 71.778167
C 83.226114 47.642317 71.778143
C 84.486757 44.986491 71.778124
C 85.801556 44.986491 71.778124
C 85.707174 43.561419 71.778168
C 84.445252 43.572565 71.778143
C 92.399985 41.152974 71.778124
C 93.057400 40.014332 71.778124
C 91.776067 39.383517 71.778168
C 91.154746 40.481940 71.778143
C 88.224312 40.718186 71.778124
C 87.566898 39.579545 71.778124
C 86.379950 40.373834 71.778168
C 87.020578 41.461109 71.778143
C 49.012508 24.527512 71.778130
C 48.318780 23.325975 71.778130
C 49.552515 22.687833 71.778141
C 50.166231 23.780118 71.778143
C 53.130116 24.104766 71.778128
C 53.823844 22.903229 71.778128
C 54.993339 23.652634 71.778146
C 54.354223 24.730253 71.778147
C 62.754669 24.104766 71.778128
C 63.448397 22.903229 71.778128
C 64.617893 23.652634 71.778146
C 63.978776 24.730253 71.778147
C 58.637062 24.527512 71.778130
C 57.943334 23.325975 71.778130
C 59.177068 22.687833 71.778141
C 59.790784 23.780118 71.778143
C 52.132064 36.639586 71.778131
C 50.744638 36.639586 71.778131
C 50.808876 35.252070 71.778139
C 52.061680 35.266735 71.778141
C 67.566946 32.439629 71.778128
C 68.260674 31.238092 71.778128
C 69.430169 31.987497 71.778146
C 68.791053 33.065116 71.778147
C 67.566946 49.109356 71.778128
C 68.260674 47.907819 71.778128
C 69.430169 48.657223 71.778146
C 68.791053 49.734843 71.778147
C 56.944340 44.974449 71.778131
C 55.556914 44.974449 71.778131
C 55.621153 43.586933 71.778139
C 56.873957 43.601598 71.778141
C 58.637062 41.197238 71.778130
C 57.943334 39.995701 71.778130
C 59.177068 39.357559 71.778141
C 59.790784 40.449844 71.778143
C 62.754669 40.774493 71.778128
C 63.448397 39.572955 71.778128
C 64.617893 40.322360 71.778146
C 63.978776 41.399980 71.778147
C 72.379222 40.774493 71.778128
C 73.072950 39.572955 71.778128
C 74.242446 40.322360 71.778146
C 73.603330 41.399980 71.778147
C 68.261615 41.197238 71.778130
C 67.567887 39.995701 71.778130
C 68.801622 39.357559 71.778141
C 69.415337 40.449844 71.778143
C 74.804139 27.459251 71.778144
C 76.191564 27.459251 71.778144
C 76.127326 28.846767 71.778110
C 74.874522 28.832102 71.778112
C 79.616415 35.794114 71.778144
C 81.003841 35.794114 71.778144
C 80.939603 37.181630 71.778110
C 79.686799 37.166965 71.778112
C 82.003776 24.104766 71.778128
C 82.697504 22.903229 71.778128
C 83.866999 23.652634 71.778146
C 83.227883 24.730253 71.778147
C 77.886168 24.527512 71.778130
C 77.192440 23.325975 71.778130
C 78.426175 22.687833 71.778141
C 79.039891 23.780118 71.778143
C 86.816052 49.109356 71.778128
C 87.509780 47.907819 71.778128
C 88.679276 48.657223 71.778146
C 88.040160 49.734843 71.778147
C 89.240969 52.463840 71.778144
C 90.628394 52.463840 71.778144
C 90.564156 53.851356 71.778110
C 89.311352 53.836691 71.778112
C 92.360524 47.906188 71.778133
C 93.054252 49.107726 71.778133
C 91.820517 49.745867 71.778135
C 91.206801 48.653582 71.778137
C 76.193447 44.974449 71.778131
C 74.806021 44.974449 71.778131
C 74.870259 43.586933 71.778139
C 76.123063 43.601598 71.778141
C 77.886168 41.197238 71.778130
C 77.192440 39.995701 71.778130
C 78.426175 39.357559 71.778141
C 79.039891 40.449844 71.778143
C 82.003776 40.774493 71.778128
C 82.697504 39.572955 71.778128
C 83.866999 40.322360 71.778146
C 83.227883 41.399980 71.778147
C 77.191499 49.109356 71.778128
C 77.885227 47.907819 71.778128
C 79.054722 48.657223 71.778146
C 78.415606 49.734843 71.778147
C 81.005723 53.309312 71.778131
C 79.618298 53.309312 71.778131
C 79.682536 51.921796 71.778139
C 80.935340 51.936462 71.778141
C 96.440605 49.109356 71.778128
C 97.134334 47.907819 71.778128
C 98.303829 48.657223 71.778146
C 97.664713 49.734843 71.778147
C 51.013985 29.532427 71.704403
C 50.131406 28.366844 71.888842
C 48.816007 28.022976 72.397838
C 49.432595 26.808414 72.796519
C 50.275209 26.954740 71.589599
C 51.592096 26.357097 71.623940
C 52.966088 26.888397 71.674575
C 53.353970 28.303282 71.626107
C 52.467363 29.485740 71.552743
C 55.032046 35.024964 71.704403
C 56.482755 34.843383 71.888842
C 57.438228 33.876124 72.397838
C 58.181805 35.017367 72.796519
C 57.633792 35.673943 71.589599
C 57.492959 37.113225 71.623940
C 56.345867 38.037517 71.674575
C 54.926591 37.666027 71.626107
C 54.345821 36.306987 71.552743
C 69.045487 45.010257 71.704403
C 69.613605 43.663123 71.888842
C 69.253687 42.352025 72.397838
C 70.613822 42.278707 72.796519
C 70.908417 43.081591 71.589599
C 72.084445 43.923212 71.623940
C 72.311340 45.378773 71.674575
C 71.279968 46.422143 71.626107
C 69.812623 46.245567 71.552743
C 88.294593 45.010257 71.704403
C 88.862711 43.663123 71.888842
C 88.502793 42.352025 72.397838
C 89.862928 42.278707 72.796519
C 90.157523 43.081591 71.589599
C 91.333551 43.923212 71.623940
C 91.560446 45.378773 71.674575
C 90.529075 46.422143 71.626107
C 89.061729 46.245567 71.552743
C 93.106870 53.345120 71.704403
C 93.674988 51.997986 71.888842
C 93.315070 50.686888 72.397838
C 94.675205 50.613570 72.796519
C 94.969800 51.416455 71.589599
C 96.145828 52.258076 71.623940
C 96.372723 53.713636 71.674575
C 95.341351 54.757007 71.626107
C 93.874006 54.580430 71.552743
C 59.437720 28.349595 71.586182
C 59.980355 27.011613 71.844199
C 59.440814 25.388371 72.452621
C 61.096362 25.778715 73.001754
C 61.291611 26.413389 71.696040
C 62.445087 27.264400 71.505827
C 62.696443 28.716649 71.621590
C 61.671116 29.758578 71.673732
C 60.199127 29.594960 71.577472
C 62.279060 45.724529 71.586182
C 60.849018 45.923602 71.844199
C 59.713036 47.202494 72.452621
C 59.223289 45.573582 73.001754
C 59.675302 45.087148 71.696040
C 59.835543 43.662702 71.505827
C 60.967538 42.718882 71.621590
C 62.382543 43.085859 71.673732
C 62.976857 44.442440 71.577472
C 78.686826 28.349595 71.586182
C 79.229462 27.011613 71.844199
C 78.689921 25.388371 72.452621
C 80.345469 25.778715 73.001754
C 80.540718 26.413389 71.696040
C 81.694193 27.264400 71.505827
C 81.945550 28.716649 71.621590
C 80.920223 29.758578 71.673732
C 79.448234 29.594960 71.577472
C 83.906249 51.713760 71.586182
C 85.336290 51.514687 71.844199
C 86.472272 50.235795 72.452621
C 86.962020 51.864708 73.001754
C 86.510007 52.351141 71.696040
C 86.349765 53.775588 71.505827
C 85.217771 54.719408 71.621590
C 83.802766 54.352431 71.673732
C 83.208452 52.995850 71.577472
C 64.258840 36.684850 71.600480
C 64.782149 35.357268 71.814539
C 64.310376 33.672016 72.295967
C 65.855964 34.149421 72.943100
C 66.094826 34.750411 71.714266
C 67.254648 35.593434 71.543637
C 67.503986 37.047422 71.620138
C 66.487048 38.096935 71.706004
C 65.018429 37.936050 71.602028
C 64.661225 51.721615 71.600480
C 66.072597 51.511005 71.814539
C 67.296165 50.259796 72.295967
C 67.655534 51.837013 72.943100
C 67.254500 52.344373 71.714266
C 67.104349 53.770322 71.543637
C 65.969840 54.713263 71.620138
C 64.552461 54.357344 71.706004
C 63.957466 53.005047 71.602028
C 73.883393 53.354577 71.600480
C 74.406702 52.026994 71.814539
C 73.934929 50.341742 72.295967
C 75.480517 50.819148 72.943100
C 75.719380 51.420137 71.714266
C 76.879201 52.263160 71.543637
C 77.128539 53.717148 71.620138
C 76.111602 54.766661 71.706004
C 74.642983 54.605776 71.602028
C 71.899531 29.046949 71.600480
C 70.488158 29.257559 71.814539
C 69.264590 30.508768 72.295967
C 68.905221 28.931551 72.943100
C 69.306256 28.424190 71.714266
C 69.456406 26.998242 71.543637
C 70.590916 26.055300 71.620138
C 72.008294 26.411219 71.706004
C 72.603290 27.763516 71.602028
C 74.285778 35.051888 71.600480
C 75.697150 34.841278 71.814539
C 76.920718 33.590069 72.295967
C 77.280087 35.167286 72.943100
C 76.879053 35.674647 71.714266
C 76.728902 37.100595 71.543637
C 75.594393 38.043537 71.620138
C 74.177014 37.687618 71.706004
C 73.582019 36.335321 71.602028
C 83.507946 36.684850 71.600480
C 84.031256 35.357268 71.814539
C 83.559482 33.672016 72.295967
C 85.105071 34.149421 72.943100
C 85.343933 34.750411 71.714266
C 86.503755 35.593434 71.543637
C 86.753092 37.047422 71.620138
C 85.736155 38.096935 71.706004
C 84.267536 37.936050 71.602028
C 81.524084 45.716675 71.600480
C 80.112712 45.927285 71.814539
C 78.889144 47.178494 72.295967
C 78.529775 45.601277 72.943100
C 78.930809 45.093916 71.714266
C 79.080960 43.667968 71.543637
C 80.215469 42.725027 71.620138
C 81.632848 43.080946 71.706004
C 82.227843 44.433242 71.602028
