60

C 19.846941 18.814382 18.814373
C 18.911179 19.753943 18.814391
C 17.729090 18.862474 18.814374
C 16.889234 18.945693 19.873469
C 16.875816 18.851695 17.061483
C 18.770318 17.826729 18.814390
C 18.743226 15.934359 18.814431
C 19.846941 56.443146 18.814373
C 18.911179 57.382707 18.814391
C 17.729090 56.491239 18.814374
C 16.889234 56.574457 19.873469
C 16.875816 56.480460 17.061483
C 18.770318 55.455493 18.814390
C 57.475706 18.814382 18.814373
C 56.539944 19.753943 18.814391
C 55.357855 18.862474 18.814374
C 54.517998 18.945693 19.873469
C 56.399082 17.826729 18.814390
C 56.371990 15.934359 18.814431
C 57.475706 56.443146 18.814373
C 56.539944 57.382707 18.814391
C 55.357855 56.491239 18.814374
C 54.517998 56.574457 19.873469
C 56.399082 55.455493 18.814390
C 36.971356 18.814382 18.814382
C 38.286172 18.814382 18.814382
C 38.191754 20.239447 18.814381
C 36.929823 20.228256 18.814372
C 18.814382 36.971356 18.814382
C 18.814382 38.286172 18.814382
C 17.389317 38.191754 18.814387
C 17.400508 36.929823 18.814377
C 36.971356 56.443146 18.814382
C 38.286172 56.443146 18.814382
C 38.191754 57.868211 18.814381
C 36.929823 57.857021 18.814372
C 18.814382 74.600121 18.814382
C 18.814382 75.914937 18.814382
C 20.113318 77.334457 18.814383
C 17.389317 75.820519 18.814387
C 17.400508 74.558587 18.814377
C 74.600121 18.814382 18.814382
C 75.914937 18.814382 18.814382
C 77.334457 17.515446 18.814388
C 75.820519 20.239447 18.814381
C 74.558587 20.228256 18.814372
C 56.443146 36.971356 18.814382
C 56.443146 38.286172 18.814382
C 55.018082 38.191754 18.814387
C 55.029272 36.929823 18.814377
C 74.600121 56.443146 18.814382
C 75.914937 56.443146 18.814382
C 77.334457 55.144210 18.814388
C 75.820519 57.868211 18.814381
C 74.558587 57.857021 18.814372
C 56.443146 74.600121 18.814382
C 56.443146 75.914937 18.814382
C 57.742083 77.334457 18.814383
C 55.018082 75.820519 18.814387
C 55.029272 74.558587 18.814377
