192

C 27.461109 27.021989 60.239615
C 26.668875 25.793832 59.860694
C 26.802503 24.608257 60.577000
C 25.707547 24.644107 61.151820
C 25.360579 25.842707 60.552694
C 24.537619 27.040605 60.240529
C 25.343133 28.231531 59.854848
C 26.767828 28.275801 60.092850
C 45.346406 27.021989 60.239615
C 46.138641 28.250147 59.860694
C 46.005013 29.435721 60.577000
C 47.099968 29.399872 61.151820
C 47.446937 28.201272 60.552694
C 48.269896 27.003373 60.240529
C 47.464382 25.812448 59.854848
C 46.039688 25.768178 60.092850
C 35.674529 10.270354 60.239615
C 37.134263 10.198356 59.860694
C 38.094178 10.906880 60.577000
C 38.610621 9.940703 61.151820
C 37.746099 9.040909 60.552694
C 37.120185 7.729247 60.240529
C 35.686055 7.831362 59.854848
C 34.935353 9.043039 60.092850
C 48.263256 63.051309 60.239615
C 47.471022 61.823151 59.860694
C 47.604650 60.637577 60.577000
C 46.509695 60.673426 61.151820
C 46.162726 61.872026 60.552694
C 45.339766 63.069925 60.240529
C 46.145281 64.260850 59.854848
C 47.569975 64.305120 60.092850
C 66.148554 63.051309 60.239615
C 66.940788 64.279466 59.860694
C 66.807160 65.465040 60.577000
C 67.902116 65.429191 61.151820
C 68.249084 64.230591 60.552694
C 69.072044 63.032692 60.240529
C 68.266529 61.841767 59.854848
C 66.841835 61.797497 60.092850
C 56.476677 46.299673 60.239615
C 57.936410 46.227675 59.860694
C 58.896325 46.936199 60.577000
C 59.412769 45.970022 61.151820
C 58.548246 45.070228 60.552694
C 57.922332 43.758567 60.240529
C 56.488202 43.860682 59.854848
C 55.737500 45.072358 60.092850
C 69.065404 27.021989 60.239615
C 68.273169 25.793832 59.860694
C 68.406797 24.608257 60.577000
C 67.311842 24.644107 61.151820
C 66.964874 25.842707 60.552694
C 66.141914 27.040605 60.240529
C 66.947428 28.231531 59.854848
C 68.372122 28.275801 60.092850
C 86.950701 27.021989 60.239615
C 87.742935 28.250147 59.860694
C 87.609308 29.435721 60.577000
C 88.704263 29.399872 61.151820
C 89.051231 28.201272 60.552694
C 89.874191 27.003373 60.240529
C 89.068677 25.812448 59.854848
C 87.643983 25.768178 60.092850
C 77.278824 10.270354 60.239615
C 78.738557 10.198356 59.860694
C 79.698472 10.906880 60.577000
C 80.214916 9.940703 61.151820
C 79.350393 9.040909 60.552694
C 78.724479 7.729247 60.240529
C 77.290349 7.831362 59.854848
C 76.539648 9.043039 60.092850
C 89.867551 63.051309 60.239615
C 89.075317 61.823151 59.860694
C 89.208944 60.637577 60.577000
C 88.113989 60.673426 61.151820
C 87.767021 61.872026 60.552694
C 86.944061 63.069925 60.240529
C 87.749575 64.260850 59.854848
C 89.174270 64.305120 60.092850
C 107.752848 63.051309 60.239615
C 108.545083 64.279466 59.860694
C 108.411455 65.465040 60.577000
C 109.506410 65.429191 61.151820
C 109.853379 64.230591 60.552694
C 110.676338 63.032692 60.240529
C 109.870824 61.841767 59.854848
C 108.446130 61.797497 60.092850
C 98.080971 46.299673 60.239615
C 99.540705 46.227675 59.860694
C 100.500620 46.936199 60.577000
C 101.017063 45.970022 61.151820
C 100.152541 45.070228 60.552694
C 99.526627 43.758567 60.240529
C 98.092497 43.860682 59.854848
C 97.341795 45.072358 60.092850
C 35.746358 27.021989 60.048921
C 37.061158 27.021989 60.048921
C 36.966775 25.596917 60.048965
C 35.704853 25.608063 60.048940
C 30.874514 18.583980 60.048921
C 31.531928 17.445339 60.048921
C 30.250596 16.814524 60.048965
C 29.629274 17.912946 60.048940
C 41.933002 18.583980 60.048921
C 41.275587 17.445339 60.048921
C 40.088640 18.239628 60.048965
C 40.729268 19.326903 60.048940
C 16.259010 27.021989 60.048921
C 14.944211 27.021989 60.048921
C 15.038593 28.447062 60.048965
C 16.300515 28.435915 60.048940
C 21.130854 35.459998 60.048921
C 20.473440 36.598640 60.048921
C 21.754773 37.229455 60.048965
C 22.376094 36.131033 60.048940
C 51.676661 35.459998 60.048921
C 52.334075 36.598640 60.048921
C 53.521023 35.804351 60.048964
C 52.880395 34.717076 60.048939
C 56.548505 63.051309 60.048921
C 57.863305 63.051309 60.048921
C 57.768923 61.626236 60.048965
C 56.507000 61.637383 60.048940
C 51.676661 54.613300 60.048921
C 52.334075 53.474658 60.048921
C 51.052743 52.843843 60.048965
C 50.431421 53.942265 60.048940
C 62.735149 54.613300 60.048921
C 62.077735 53.474658 60.048921
C 60.890787 54.268947 60.048965
C 61.531415 55.356222 60.048940
C 37.061158 63.051309 60.048921
C 35.746358 63.051309 60.048921
C 35.840740 64.476381 60.048965
C 37.102663 64.465234 60.048940
C 41.933002 71.489318 60.048921
C 41.275587 72.627959 60.048921
C 42.556920 73.258774 60.048965
C 43.178242 72.160352 60.048940
C 72.478808 71.489318 60.048921
C 73.136223 72.627959 60.048921
C 74.323171 71.833670 60.048964
C 73.682542 70.746395 60.048939
C 77.350653 27.021989 60.048921
C 78.665452 27.021989 60.048921
C 78.571070 25.596917 60.048965
C 77.309148 25.608063 60.048940
C 72.478808 18.583980 60.048921
C 73.136223 17.445339 60.048921
C 71.854890 16.814524 60.048965
C 71.233569 17.912946 60.048940
C 83.537296 18.583980 60.048921
C 82.879882 17.445339 60.048921
C 81.692934 18.239628 60.048965
C 82.333563 19.326903 60.048940
C 57.863305 27.021989 60.048921
C 56.548505 27.021989 60.048921
C 56.642888 28.447062 60.048965
C 57.904810 28.435915 60.048940
C 62.735149 35.459998 60.048921
C 62.077735 36.598640 60.048921
C 63.359067 37.229455 60.048965
C 63.980389 36.131033 60.048940
C 93.280956 35.459998 60.048921
C 93.938370 36.598640 60.048921
C 95.125318 35.804351 60.048964
C 94.484690 34.717076 60.048939
C 98.152800 63.051309 60.048921
C 99.467600 63.051309 60.048921
C 99.373217 61.626236 60.048965
C 98.111295 61.637383 60.048940
C 93.280956 54.613300 60.048921
C 93.938370 53.474658 60.048921
C 92.657038 52.843843 60.048965
C 92.035716 53.942265 60.048940
C 104.339444 54.613300 60.048921
C 103.682029 53.474658 60.048921
C 102.495082 54.268947 60.048965
C 103.135710 55.356222 60.048940
C 78.665452 63.051309 60.048921
C 77.350653 63.051309 60.048921
C 77.445035 64.476381 60.048965
C 78.706957 64.465234 60.048940
C 83.537296 71.489318 60.048921
C 82.879882 72.627959 60.048921
C 84.161215 73.258774 60.048965
C 84.782536 72.160352 60.048940
C 114.083103 71.489318 60.048921
C 114.740517 72.627959 60.048921
C 115.927465 71.833670 60.048964
C 115.286837 70.746395 60.048939
