1566

C 24.772329 15.121405 92.804684
C 25.528427 13.885154 92.405417
C 24.746879 12.685526 92.895534
C 23.360923 12.679170 92.289850
C 22.637293 13.870400 92.908530
C 23.329684 15.111154 92.381897
C 22.470305 16.654807 93.185104
C 24.759875 15.138988 93.923049
C 26.498134 13.911341 92.957627
C 24.597512 12.863146 93.990632
C 22.860674 11.721175 92.533295
C 22.779630 13.799809 94.000926
C 23.214291 15.159040 91.287548
C 39.394575 40.447134 92.804684
C 38.638478 41.683385 92.405417
C 39.420026 42.883013 92.895534
C 40.805981 42.889370 92.289850
C 41.529612 41.698139 92.908530
C 40.837220 40.457385 92.381897
C 38.478334 44.533745 92.631545
C 39.407029 40.429551 93.923049
C 37.668770 41.657198 92.957627
C 39.569392 42.705393 93.990632
C 41.306231 43.847364 92.533295
C 41.387274 41.768731 94.000926
C 40.952614 40.409500 91.287548
C 54.726592 13.892135 92.804684
C 55.419152 15.165069 92.405417
C 56.848835 15.088060 92.895534
C 57.547333 13.890975 92.289850
C 56.877528 12.668668 92.908530
C 55.456808 12.647902 92.381897
C 54.717592 13.872558 93.923049
C 54.911609 15.991759 92.957627
C 56.769698 14.869894 93.990632
C 58.627105 13.936757 92.533295
C 56.867491 12.827232 94.000926
C 55.473036 12.524026 91.287548
C 70.768318 41.676404 92.804684
C 71.460878 42.949338 92.405417
C 72.890562 42.872330 92.895534
C 73.589059 41.675244 92.289850
C 72.919254 40.452938 92.908530
C 71.498534 40.432172 92.381897
C 70.759318 41.656827 93.923049
C 70.953335 43.776029 92.957627
C 72.811424 42.654164 93.990632
C 74.668831 41.721027 92.533295
C 72.909217 40.611502 94.000926
C 71.514762 40.308295 91.287548
C 56.855782 70.689944 92.804684
C 57.611879 69.453693 92.405417
C 56.830331 68.254065 92.895534
C 55.444375 68.247709 92.289850
C 54.720745 69.438940 92.908530
C 55.413136 70.679693 92.381897
C 54.553757 72.223346 93.185104
C 56.843328 70.707527 93.923049
C 58.581586 69.479881 92.957627
C 56.680965 68.431685 93.990632
C 54.944126 67.289714 92.533295
C 54.863082 69.368348 94.000926
C 55.297743 70.727579 91.287548
C 71.478027 96.015674 92.804684
C 70.721930 97.251924 92.405417
C 71.503478 98.451553 92.895534
C 72.889433 98.457909 92.289850
C 73.613064 97.266678 92.908530
C 72.920673 96.025925 92.381897
C 72.855820 98.122741 90.381288
C 70.561787 100.102285 92.631545
C 71.490481 95.998091 93.923049
C 69.752223 97.225737 92.957627
C 71.652844 98.273933 93.990632
C 73.389683 99.415903 92.533295
C 73.470727 97.337270 94.000926
C 73.036066 95.978039 91.287548
C 86.810044 69.460674 92.804684
C 87.502604 70.733608 92.405417
C 88.932288 70.656600 92.895534
C 89.630785 69.459514 92.289850
C 88.960980 68.237208 92.908530
C 87.540260 68.216441 92.381897
C 86.801044 69.441097 93.923049
C 86.995061 71.560299 92.957627
C 88.853150 70.438434 93.990632
C 90.710557 69.505296 92.533295
C 88.950943 68.395771 94.000926
C 87.556488 68.092565 91.287548
C 102.851770 97.244944 92.804684
C 103.544330 98.517878 92.405417
C 104.974014 98.440869 92.895534
C 105.672511 97.243784 92.289850
C 105.002706 96.021477 92.908530
C 103.581987 96.000711 92.381897
C 105.932723 100.081776 92.631545
C 103.403467 98.914834 90.537559
C 102.842771 97.225367 93.923049
C 103.036787 99.344568 92.957627
C 104.894876 98.222703 93.990632
C 106.752283 97.289566 92.533295
C 104.992670 96.180041 94.000926
C 103.598215 95.876835 91.287548
C 88.939234 15.121405 92.804684
C 89.695331 13.885154 92.405417
C 88.913783 12.685526 92.895534
C 87.527828 12.679170 92.289850
C 86.804197 13.870400 92.908530
C 87.496589 15.111154 92.381897
C 88.926780 15.138988 93.923049
C 90.665038 13.911341 92.957627
C 88.764417 12.863146 93.990632
C 87.027578 11.721175 92.533295
C 86.946535 13.799809 94.000926
C 87.381195 15.159040 91.287548
C 103.561479 40.447134 92.804684
C 102.805382 41.683385 92.405417
C 103.586930 42.883013 92.895534
C 104.972886 42.889370 92.289850
C 105.696516 41.698139 92.908530
C 105.004125 40.457385 92.381897
C 103.573934 40.429551 93.923049
C 101.835675 41.657198 92.957627
C 103.736296 42.705393 93.990632
C 105.473135 43.847364 92.533295
C 105.554179 41.768731 94.000926
C 105.119518 40.409500 91.287548
C 118.893497 13.892135 92.804684
C 119.586056 15.165069 92.405417
C 121.015740 15.088060 92.895534
C 121.714237 13.890975 92.289850
C 121.044432 12.668668 92.908530
C 119.623713 12.647902 92.381897
C 121.407168 13.752497 90.381288
C 118.884497 13.872558 93.923049
C 119.078513 15.991759 92.957627
C 120.936602 14.869894 93.990632
C 122.794009 13.936757 92.533295
C 121.034396 12.827232 94.000926
C 119.639941 12.524026 91.287548
C 134.935223 41.676404 92.804684
C 135.627782 42.949338 92.405417
C 137.057466 42.872330 92.895534
C 137.755964 41.675244 92.289850
C 137.086158 40.452938 92.908530
C 135.665439 40.432172 92.381897
C 137.448894 41.536766 90.381288
C 134.926223 41.656827 93.923049
C 135.120239 43.776029 92.957627
C 136.978329 42.654164 93.990632
C 138.835735 41.721027 92.533295
C 137.076122 40.611502 94.000926
C 135.681667 40.308295 91.287548
C 121.022686 70.689944 92.804684
C 121.778784 69.453693 92.405417
C 120.997235 68.254065 92.895534
C 119.611280 68.247709 92.289850
C 118.887649 69.438940 92.908530
C 119.580041 70.679693 92.381897
C 121.010232 70.707527 93.923049
C 122.748491 69.479881 92.957627
C 120.847869 68.431685 93.990632
C 119.111031 67.289714 92.533295
C 119.029987 69.368348 94.000926
C 119.464647 70.727579 91.287548
C 135.644932 96.015674 92.804684
C 134.888834 97.251924 92.405417
C 135.670382 98.451553 92.895534
C 137.056338 98.457909 92.289850
C 137.779968 97.266678 92.908530
C 137.087577 96.025925 92.381897
C 137.022725 98.122741 90.381288
C 134.728691 100.102285 92.631545
C 135.657386 95.998091 93.923049
C 133.919127 97.225737 92.957627
C 135.819749 98.273933 93.990632
C 137.556587 99.415903 92.533295
C 137.637631 97.337270 94.000926
C 137.202970 95.978039 91.287548
C 150.976949 69.460674 92.804684
C 151.669508 70.733608 92.405417
C 153.099192 70.656600 92.895534
C 153.797690 69.459514 92.289850
C 153.127884 68.237208 92.908530
C 151.707165 68.216441 92.381897
C 153.490621 69.321036 90.381288
C 150.967949 69.441097 93.923049
C 151.161966 71.560299 92.957627
C 153.020055 70.438434 93.990632
C 154.877461 69.505296 92.533295
C 153.117848 68.395771 94.000926
C 151.723393 68.092565 91.287548
C 167.018675 97.244944 92.804684
C 167.711235 98.517878 92.405417
C 169.140918 98.440869 92.895534
C 169.839416 97.243784 92.289850
C 169.169611 96.021477 92.908530
C 167.748891 96.000711 92.381897
C 169.532347 97.105305 90.381288
C 170.099628 100.081776 92.631545
C 167.570372 98.914834 90.537559
C 167.009675 97.225367 93.923049
C 167.203692 99.344568 92.957627
C 169.061781 98.222703 93.990632
C 170.919188 97.289566 92.533295
C 169.159574 96.180041 94.000926
C 167.765119 95.876835 91.287548
C 32.075471 25.351263 92.030080
C 30.847362 25.643362 92.614319
C 30.542652 26.915673 93.052748
C 31.509178 27.883609 92.885604
C 31.184781 29.171168 93.328988
C 32.110251 30.188838 93.184167
C 33.319542 29.925177 92.614319
C 33.620790 28.636737 92.180296
C 32.724884 27.598427 92.308275
C 33.050427 26.312675 91.858437
C 34.369745 26.055571 91.271401
C 35.484783 25.874142 92.239089
C 35.289732 24.696798 93.167797
C 36.475565 24.585406 94.119303
C 32.300969 24.346855 91.691590
C 29.595419 27.173813 93.507682
C 30.226555 29.381835 93.780803
C 31.874007 31.195840 93.524183
C 34.595963 28.517247 91.734787
C 34.695937 26.853489 90.558200
C 34.348219 25.128841 90.630074
C 36.404954 25.679490 91.653257
C 35.672110 26.761056 92.873691
C 35.281319 23.727006 92.589416
C 34.388701 24.728767 93.776248
C 36.680567 25.543840 94.636023
C 37.379493 24.432557 93.450306
C 36.338013 23.742968 94.806022
C 37.993295 12.686951 92.020987
C 37.632190 13.892135 92.614319
C 38.581677 14.788862 93.059513
C 39.903202 14.437080 92.889716
C 40.856050 15.358442 93.340051
C 42.200117 15.066912 93.193031
C 42.576440 13.892135 92.614319
C 41.611254 12.990309 92.173491
C 40.264095 13.246042 92.303400
C 39.313385 12.324640 91.846611
C 39.750401 11.057988 91.250019
C 40.150811 9.994369 92.209724
C 39.033681 9.567620 93.135244
C 39.530143 8.477833 94.078570
C 37.236209 11.992019 91.677254
C 38.331604 15.734804 93.521585
C 40.559369 16.290191 93.798896
C 42.954076 15.772435 93.538370
C 41.995370 12.089425 91.721186
C 40.604513 11.179834 90.537714
C 38.937072 10.618097 90.605360
C 40.442334 9.104593 91.617174
C 41.012561 10.270820 92.846425
C 38.189616 9.094369 92.553283
C 38.610842 10.359310 93.749674
C 40.462669 8.775625 94.597547
C 39.849747 7.623651 93.403121
C 38.731799 8.170565 94.762994
C 46.027320 29.010650 92.017743
C 46.889089 29.925177 92.614319
C 48.139384 29.550676 93.061927
C 48.495908 28.230544 92.891182
C 49.769206 27.865443 93.343998
C 50.189128 26.555885 93.196193
C 49.361268 25.643362 92.614319
C 48.098697 26.028904 92.171064
C 47.646269 27.323264 92.301661
C 46.374019 27.686502 91.842391
C 45.496983 26.675504 91.242389
C 44.773844 25.795630 92.199226
C 43.843535 26.548461 93.123594
C 43.145799 25.572341 94.063981
C 45.047749 29.319291 91.672139
C 48.832468 30.239601 93.526545
C 50.426701 28.587639 93.805351
C 51.176305 26.255246 93.543431
C 47.511634 25.246411 91.716333
C 46.031231 25.997711 90.530416
C 44.710861 27.160781 90.596548
C 44.150430 25.099067 91.604282
C 45.442654 25.186709 92.836670
C 43.013008 27.043590 92.540359
C 44.316294 27.309672 93.740154
C 43.868754 24.912956 94.583758
C 42.567445 24.869369 93.386233
C 42.478922 26.109164 94.747575
C 54.035021 40.471220 92.020987
C 53.673916 41.676404 92.614319
C 54.623403 42.573131 93.059513
C 55.944928 42.221349 92.889716
C 56.897776 43.142711 93.340051
C 58.241843 42.851182 93.193031
C 58.618167 41.676404 92.614319
C 57.652980 40.774578 92.173491
C 56.305821 41.030312 92.303400
C 55.355111 40.108909 91.846611
C 55.792127 38.842258 91.250019
C 56.192537 37.778639 92.209724
C 55.075407 37.351890 93.135244
C 55.571869 36.262103 94.078570
C 53.277935 39.776289 91.677254
C 54.373330 43.519074 93.521585
C 56.601095 44.074460 93.798896
C 58.995802 43.556705 93.538370
C 58.037096 39.873694 91.721186
C 56.646239 38.964104 90.537714
C 54.978798 38.402367 90.605360
C 56.484060 36.888862 91.617174
C 57.054287 38.055090 92.846425
C 54.231343 36.878638 92.553283
C 54.652568 38.143580 93.749674
C 56.504395 36.559895 94.597547
C 55.891473 35.407921 93.403121
C 54.773525 35.954835 94.762994
C 64.158923 25.351263 92.030080
C 62.930815 25.643362 92.614319
C 62.626104 26.915673 93.052748
C 63.592630 27.883609 92.885604
C 63.268233 29.171168 93.328988
C 64.193703 30.188838 93.184167
C 65.402994 29.925177 92.614319
C 65.704242 28.636737 92.180296
C 64.808336 27.598427 92.308275
C 65.133880 26.312675 91.858437
C 66.453197 26.055571 91.271401
C 67.568235 25.874142 92.239089
C 67.373184 24.696798 93.167797
C 68.559018 24.585406 94.119303
C 64.384421 24.346855 91.691590
C 61.678871 27.173813 93.507682
C 62.310007 29.381835 93.780803
C 63.957459 31.195840 93.524183
C 66.679415 28.517247 91.734787
C 66.779390 26.853489 90.558200
C 66.431671 25.128841 90.630074
C 68.488406 25.679490 91.653257
C 67.755562 26.761056 92.873691
C 67.364771 23.727006 92.589416
C 66.472153 24.728767 93.776248
C 68.764019 25.543840 94.636023
C 69.462945 24.432557 93.450306
C 68.421465 23.742968 94.806022
C 10.131884 15.092300 92.010900
C 10.492988 13.892135 92.614319
C 9.543502 12.999173 93.067018
C 8.221976 13.349519 92.894276
C 7.269128 12.431966 93.352323
C 5.925061 12.722252 93.202863
C 5.548738 13.892135 92.614319
C 3.679642 14.281518 92.408362
C 6.513924 14.790232 92.165943
C 7.861084 14.535597 92.297992
C 8.811793 15.453136 91.833491
C 8.374778 16.714740 91.226297
C 7.974367 17.786370 92.177048
C 9.091498 18.220867 93.098957
C 8.595035 19.318526 94.033110
C 10.888969 15.784325 91.661351
C 9.793574 12.057140 93.537008
C 7.565810 11.504098 93.818967
C 5.171103 12.019650 93.554107
C 6.129808 15.687291 91.706098
C 7.520665 16.586924 90.515040
C 9.188106 17.149209 90.577972
C 7.682844 18.671146 91.577057
C 7.112618 17.515269 92.816046
C 9.935562 18.689220 92.513047
C 9.514337 17.434357 93.720005
C 7.662510 19.025097 94.554566
C 8.275431 20.167013 93.350520
C 9.393380 19.631524 94.714933
C 16.056088 2.429322 92.015064
C 17.277816 2.140908 92.614319
C 17.577739 0.871361 93.063920
C 16.613038 -0.097630 92.892394
C 16.932592 -1.382392 93.347257
C 16.008704 -2.400975 93.198804
C 14.805636 -2.140908 92.614319
C 13.533238 -3.564529 92.409713
C 14.509129 -0.855205 92.169059
C 15.403638 0.183912 92.300225
C 15.083007 1.466827 91.838907
C 13.770105 1.720228 91.236090
C 12.644703 1.907640 92.190550
C 12.829768 3.090750 93.113960
C 11.633748 3.208024 94.051912
C 15.834287 3.431596 91.667916
C 18.520002 0.616090 93.530641
C 17.885884 -1.590210 93.810681
C 16.241234 -3.405833 93.547610
C 13.538821 -0.738523 91.712327
C 13.451595 0.917874 90.524394
C 13.798576 2.642948 90.589275
C 11.730909 2.098611 91.593629
C 12.450515 1.024688 92.828604
C 12.844450 4.056922 92.529676
C 13.724185 3.062600 93.732278
C 11.423154 2.252818 94.572348
C 10.737091 3.356674 93.372268
C 11.763915 4.054725 94.734816
C 29.985594 1.226380 92.017743
C 30.847362 2.140908 92.614319
C 32.097657 1.766406 93.061927
C 32.454182 0.446274 92.891182
C 33.727480 0.081173 93.343998
C 34.147402 -1.228384 93.196193
C 33.319542 -2.140908 92.614319
C 33.915887 -3.954859 92.410582
C 32.056971 -1.755366 92.171064
C 31.604543 -0.461005 92.301661
C 30.332293 -0.097767 91.842391
C 29.455257 -1.108765 91.242389
C 28.732118 -1.988640 92.199226
C 27.801809 -1.235809 93.123594
C 27.104073 -2.211929 94.063981
C 29.006023 1.535021 91.672139
C 32.790742 2.455331 93.526545
C 34.384975 0.803370 93.805351
C 35.134578 -1.529024 93.543431
C 31.469908 -2.537858 91.716333
C 29.989505 -1.786559 90.530416
C 28.669135 -0.623488 90.596548
C 28.108704 -2.685203 91.604282
C 29.400927 -2.597561 92.836670
C 26.971282 -0.740679 92.540359
C 28.274568 -0.474597 93.740154
C 27.827028 -2.871314 94.583758
C 26.525719 -2.914901 93.386233
C 26.437196 -1.675106 94.747575
C 62.069046 1.226380 92.017743
C 62.930815 2.140908 92.614319
C 64.181110 1.766406 93.061927
C 64.537634 0.446274 92.891182
C 65.810932 0.081173 93.343998
C 66.230855 -1.228384 93.196193
C 65.402994 -2.140908 92.614319
C 65.999340 -3.954859 92.410582
C 64.140423 -1.755366 92.171064
C 63.687995 -0.461005 92.301661
C 62.415746 -0.097767 91.842391
C 61.538710 -1.108765 91.242389
C 60.815570 -1.988640 92.199226
C 59.885261 -1.235809 93.123594
C 59.187525 -2.211929 94.063981
C 61.089475 1.535021 91.672139
C 64.874194 2.455331 93.526545
C 66.468427 0.803370 93.805351
C 67.218031 -1.529024 93.543431
C 63.553361 -2.537858 91.716333
C 62.072957 -1.786559 90.530416
C 60.752587 -0.623488 90.596548
C 60.192156 -2.685203 91.604282
C 61.484380 -2.597561 92.836670
C 59.054734 -0.740679 92.540359
C 60.358020 -0.474597 93.740154
C 59.910480 -2.871314 94.583758
C 58.609171 -2.914901 93.386233
C 58.520648 -1.675106 94.747575
C 48.139540 2.429322 92.015064
C 49.361268 2.140908 92.614319
C 49.661191 0.871361 93.063920
C 48.696490 -0.097630 92.892394
C 49.016045 -1.382392 93.347257
C 48.092156 -2.400975 93.198804
C 46.889089 -2.140908 92.614319
C 45.616691 -3.564529 92.409713
C 46.592581 -0.855205 92.169059
C 47.487090 0.183912 92.300225
C 47.166459 1.466827 91.838907
C 45.853557 1.720228 91.236090
C 44.728156 1.907640 92.190550
C 44.913221 3.090750 93.113960
C 43.717200 3.208024 94.051912
C 47.917740 3.431596 91.667916
C 50.603455 0.616090 93.530641
C 49.969336 -1.590210 93.810681
C 48.324686 -3.405833 93.547610
C 45.622273 -0.738523 91.712327
C 45.535047 0.917874 90.524394
C 45.882028 2.642948 90.589275
C 43.814362 2.098611 91.593629
C 44.533967 1.024688 92.828604
C 44.927902 4.056922 92.529676
C 45.807637 3.062600 93.732278
C 43.506606 2.252818 94.572348
C 42.820544 3.356674 93.372268
C 43.847367 4.054725 94.734816
C 26.173610 42.876570 92.010900
C 26.534714 41.676404 92.614319
C 25.585228 40.783443 93.067018
C 24.263702 41.133789 92.894276
C 23.310855 40.216236 93.352323
C 21.966787 40.506522 93.202863
C 21.590464 41.676404 92.614319
C 19.721368 42.065788 92.408362
C 22.555650 42.574502 92.165943
C 23.902810 42.319866 92.297992
C 24.853520 43.237406 91.833491
C 24.416504 44.499010 91.226297
C 24.016093 45.570639 92.177048
C 25.133224 46.005136 93.098957
C 24.636761 47.102796 94.033110
C 26.930695 43.568594 91.661351
C 25.835300 39.841409 93.537008
C 23.607536 39.288368 93.818967
C 21.212829 39.803920 93.554107
C 22.171534 43.471561 91.706098
C 23.562392 44.371194 90.515040
C 25.229832 44.933478 90.577972
C 23.724570 46.455415 91.577057
C 23.154344 45.299538 92.816046
C 25.977288 46.473490 92.513047
C 25.556063 45.218627 93.720005
C 23.704236 46.809367 94.554566
C 24.317157 47.951283 93.350520
C 25.435106 47.415794 94.714933
C 78.110772 29.010650 92.017743
C 78.972541 29.925177 92.614319
C 80.222836 29.550676 93.061927
C 80.579360 28.230544 92.891182
C 81.852658 27.865443 93.343998
C 82.272581 26.555885 93.196193
C 81.444720 25.643362 92.614319
C 80.182149 26.028904 92.171064
C 79.729721 27.323264 92.301661
C 78.457472 27.686502 91.842391
C 77.580436 26.675504 91.242389
C 76.857296 25.795630 92.199226
C 75.926988 26.548461 93.123594
C 75.229251 25.572341 94.063981
C 77.131201 29.319291 91.672139
C 80.915920 30.239601 93.526545
C 82.510153 28.587639 93.805351
C 83.259757 26.255246 93.543431
C 79.595087 25.246411 91.716333
C 78.114684 25.997711 90.530416
C 76.794313 27.160781 90.596548
C 76.233882 25.099067 91.604282
C 77.526106 25.186709 92.836670
C 75.096461 27.043590 92.540359
C 76.399746 27.309672 93.740154
C 75.952206 24.912956 94.583758
C 74.650897 24.869369 93.386233
C 74.562374 26.109164 94.747575
C 64.158923 80.919802 92.030080
C 62.930815 81.211901 92.614319
C 62.626104 82.484212 93.052748
C 63.592630 83.452149 92.885604
C 63.268233 84.739707 93.328988
C 64.193703 85.757378 93.184167
C 65.402994 85.493716 92.614319
C 65.704242 84.205276 92.180296
C 64.808336 83.166966 92.308275
C 65.133880 81.881215 91.858437
C 66.453197 81.624110 91.271401
C 67.568235 81.442681 92.239089
C 67.373184 80.265337 93.167797
C 68.559018 80.153945 94.119303
C 64.384421 79.915394 91.691590
C 61.678871 82.742353 93.507682
C 62.310007 84.950375 93.780803
C 63.957459 86.764380 93.524183
C 66.679415 84.085786 91.734787
C 66.779390 82.422028 90.558200
C 66.431671 80.697380 90.630074
C 68.488406 81.248029 91.653257
C 67.755562 82.329595 92.873691
C 67.364771 79.295546 92.589416
C 66.472153 80.297306 93.776248
C 68.764019 81.112379 94.636023
C 69.462945 80.001096 93.450306
C 68.421465 79.311507 94.806022
C 70.076747 68.255490 92.020987
C 69.715642 69.460674 92.614319
C 70.665129 70.357401 93.059513
C 71.986654 70.005619 92.889716
C 72.939502 70.926981 93.340051
C 74.283569 70.635452 93.193031
C 74.659893 69.460674 92.614319
C 73.694706 68.558848 92.173491
C 72.347547 68.814582 92.303400
C 71.396837 67.893179 91.846611
C 71.833853 66.626527 91.250019
C 72.234263 65.562909 92.209724
C 71.117133 65.136159 93.135244
C 71.613596 64.046373 94.078570
C 69.319661 67.560558 91.677254
C 70.415057 71.303343 93.521585
C 72.642821 71.858730 93.798896
C 75.037528 71.340975 93.538370
C 74.078823 67.657964 91.721186
C 72.687965 66.748373 90.537714
C 71.020524 66.186636 90.605360
C 72.525787 64.673132 91.617174
C 73.096013 65.839359 92.846425
C 70.273069 64.662908 92.553283
C 70.694294 65.927849 93.749674
C 72.546121 64.344165 94.597547
C 71.933199 63.192191 93.403121
C 70.815251 63.739104 94.762994
C 78.110772 84.579189 92.017743
C 78.972541 85.493716 92.614319
C 80.222836 85.119215 93.061927
C 80.579360 83.799083 92.891182
C 81.852658 83.433982 93.343998
C 82.272581 82.124425 93.196193
C 81.444720 81.211901 92.614319
C 80.182149 81.597443 92.171064
C 79.729721 82.891803 92.301661
C 78.457472 83.255042 91.842391
C 77.580436 82.244044 91.242389
C 76.857296 81.364169 92.199226
C 75.926988 82.117000 93.123594
C 75.229251 81.140880 94.063981
C 77.131201 84.887830 91.672139
C 80.915920 85.808140 93.526545
C 82.510153 84.156179 93.805351
C 83.259757 81.823785 93.543431
C 79.595087 80.814950 91.716333
C 78.114684 81.566250 90.530416
C 76.794313 82.729321 90.596548
C 76.233882 80.667606 91.604282
C 77.526106 80.755248 92.836670
C 75.096461 82.612130 92.540359
C 76.399746 82.878212 93.740154
C 75.952206 80.481495 94.583758
C 74.650897 80.437908 93.386233
C 74.562374 81.677703 94.747575
C 86.118473 96.039760 92.020987
C 85.757368 97.244944 92.614319
C 86.706855 98.141671 93.059513
C 88.028380 97.789888 92.889716
C 88.981228 98.711251 93.340051
C 90.325296 98.419721 93.193031
C 90.701619 97.244944 92.614319
C 89.736433 96.343117 92.173491
C 88.389273 96.598851 92.303400
C 87.438563 95.677448 91.846611
C 87.875579 94.410797 91.250019
C 88.275989 93.347178 92.209724
C 87.158859 92.920429 93.135244
C 87.655322 91.830642 94.078570
C 85.361387 95.344828 91.677254
C 86.456783 99.087613 93.521585
C 88.684547 99.642999 93.798896
C 91.079254 99.125244 93.538370
C 90.120549 95.442234 91.721186
C 88.729691 94.532643 90.537714
C 87.062250 93.970906 90.605360
C 88.567513 92.457402 91.617174
C 89.137739 93.623629 92.846425
C 86.314795 92.447177 92.553283
C 86.736020 93.712119 93.749674
C 88.587847 92.128434 94.597547
C 87.974925 90.976460 93.403121
C 86.856977 91.523374 94.762994
C 96.242376 80.919802 92.030080
C 95.014267 81.211901 92.614319
C 94.709556 82.484212 93.052748
C 95.676083 83.452149 92.885604
C 95.351685 84.739707 93.328988
C 96.277155 85.757378 93.184167
C 97.486446 85.493716 92.614319
C 97.787694 84.205276 92.180296
C 96.891788 83.166966 92.308275
C 97.217332 81.881215 91.858437
C 98.536649 81.624110 91.271401
C 99.651687 81.442681 92.239089
C 99.456636 80.265337 93.167797
C 100.642470 80.153945 94.119303
C 96.467873 79.915394 91.691590
C 93.762323 82.742353 93.507682
C 94.393459 84.950375 93.780803
C 96.040912 86.764380 93.524183
C 98.762867 84.085786 91.734787
C 98.862842 82.422028 90.558200
C 98.515123 80.697380 90.630074
C 100.571858 81.248029 91.653257
C 99.839014 82.329595 92.873691
C 99.448223 79.295546 92.589416
C 98.555605 80.297306 93.776248
C 100.847472 81.112379 94.636023
C 101.546397 80.001096 93.450306
C 100.504918 79.311507 94.806022
C 42.215336 70.660840 92.010900
C 42.576440 69.460674 92.614319
C 41.626954 68.567712 93.067018
C 40.305429 68.918058 92.894276
C 39.352581 68.000505 93.352323
C 38.008513 68.290791 93.202863
C 37.632190 69.460674 92.614319
C 35.763094 69.850057 92.408362
C 38.597376 70.358771 92.165943
C 39.944536 70.104136 92.297992
C 40.895246 71.021675 91.833491
C 40.458230 72.283279 91.226297
C 40.057819 73.354909 92.177048
C 41.174950 73.789406 93.098957
C 40.678487 74.887065 94.033110
C 42.972421 71.352864 91.661351
C 41.877026 67.625679 93.537008
C 39.649262 67.072637 93.818967
C 37.254555 67.588189 93.554107
C 38.213260 71.255830 91.706098
C 39.604118 72.155463 90.515040
C 41.271559 72.717748 90.577972
C 39.766296 74.239685 91.577057
C 39.196070 73.083808 92.816046
C 42.019014 74.257760 92.513047
C 41.597789 73.002897 93.720005
C 39.745962 74.593636 94.554566
C 40.358883 75.735553 93.350520
C 41.476832 75.200063 94.714933
C 48.139540 57.997862 92.015064
C 49.361268 57.709447 92.614319
C 49.661191 56.439901 93.063920
C 48.696490 55.470910 92.892394
C 49.016045 54.186148 93.347257
C 48.092156 53.167564 93.198804
C 46.889089 53.427632 92.614319
C 46.592581 54.713334 92.169059
C 47.487090 55.752452 92.300225
C 47.166459 57.035367 91.838907
C 45.853557 57.288767 91.236090
C 44.728156 57.476180 92.190550
C 44.913221 58.659290 93.113960
C 43.717200 58.776563 94.051912
C 47.917740 59.000136 91.667916
C 50.603455 56.184629 93.530641
C 49.969336 53.978329 93.810681
C 48.324686 52.162706 93.547610
C 45.622273 54.830016 91.712327
C 45.535047 56.486413 90.524394
C 45.882028 58.211487 90.589275
C 43.814362 57.667150 91.593629
C 44.533967 56.593228 92.828604
C 44.927902 59.625462 92.529676
C 45.807637 58.631139 93.732278
C 43.506606 57.821357 94.572348
C 42.820544 58.925214 93.372268
C 43.847367 59.623264 94.734816
C 62.069046 56.794919 92.017743
C 62.930815 57.709447 92.614319
C 64.181110 57.334946 93.061927
C 64.537634 56.014814 92.891182
C 65.810932 55.649712 93.343998
C 66.230855 54.340155 93.196193
C 65.402994 53.427632 92.614319
C 64.140423 53.813174 92.171064
C 63.687995 55.107534 92.301661
C 62.415746 55.470772 91.842391
C 61.538710 54.459774 91.242389
C 60.815570 53.579899 92.199226
C 59.885261 54.332730 93.123594
C 59.187525 53.356611 94.063981
C 61.089475 57.103561 91.672139
C 64.874194 58.023870 93.526545
C 66.468427 56.371909 93.805351
C 67.218031 54.039516 93.543431
C 63.553361 53.030681 91.716333
C 62.072957 53.781980 90.530416
C 60.752587 54.945051 90.596548
C 60.192156 52.883336 91.604282
C 61.484380 52.970978 92.836670
C 59.054734 54.827860 92.540359
C 60.358020 55.093942 93.740154
C 59.910480 52.697226 94.583758
C 58.609171 52.653638 93.386233
C 58.520648 53.893433 94.747575
C 94.152499 56.794919 92.017743
C 95.014267 57.709447 92.614319
C 96.264562 57.334946 93.061927
C 96.621086 56.014814 92.891182
C 97.894384 55.649712 93.343998
C 98.314307 54.340155 93.196193
C 97.486446 53.427632 92.614319
C 96.223875 53.813174 92.171064
C 95.771447 55.107534 92.301661
C 94.499198 55.470772 91.842391
C 93.622162 54.459774 91.242389
C 92.899022 53.579899 92.199226
C 91.968714 54.332730 93.123594
C 91.270977 53.356611 94.063981
C 93.172928 57.103561 91.672139
C 96.957646 58.023870 93.526545
C 98.551879 56.371909 93.805351
C 99.301483 54.039516 93.543431
C 95.636813 53.030681 91.716333
C 94.156410 53.781980 90.530416
C 92.836040 54.945051 90.596548
C 92.275608 52.883336 91.604282
C 93.567832 52.970978 92.836670
C 91.138187 54.827860 92.540359
C 92.441472 55.093942 93.740154
C 91.993933 52.697226 94.583758
C 90.692623 52.653638 93.386233
C 90.604100 53.893433 94.747575
C 80.222993 57.997862 92.015064
C 81.444720 57.709447 92.614319
C 81.744643 56.439901 93.063920
C 80.779943 55.470910 92.892394
C 81.099497 54.186148 93.347257
C 80.175608 53.167564 93.198804
C 78.972541 53.427632 92.614319
C 78.676034 54.713334 92.169059
C 79.570542 55.752452 92.300225
C 79.249911 57.035367 91.838907
C 77.937010 57.288767 91.236090
C 76.811608 57.476180 92.190550
C 76.996673 58.659290 93.113960
C 75.800652 58.776563 94.051912
C 80.001192 59.000136 91.667916
C 82.686907 56.184629 93.530641
C 82.052788 53.978329 93.810681
C 80.408138 52.162706 93.547610
C 77.705726 54.830016 91.712327
C 77.618499 56.486413 90.524394
C 77.965481 58.211487 90.589275
C 75.897814 57.667150 91.593629
C 76.617419 56.593228 92.828604
C 77.011354 59.625462 92.529676
C 77.891089 58.631139 93.732278
C 75.590058 57.821357 94.572348
C 74.903996 58.925214 93.372268
C 75.930820 59.623264 94.734816
C 58.257062 98.445109 92.010900
C 58.618167 97.244944 92.614319
C 57.668680 96.351982 93.067018
C 56.347155 96.702328 92.894276
C 55.394307 95.784775 93.352323
C 54.050239 96.075061 93.202863
C 53.673916 97.244944 92.614319
C 51.804820 97.634327 92.408362
C 54.639102 98.143041 92.165943
C 55.986262 97.888406 92.297992
C 56.936972 98.805945 91.833491
C 56.499956 100.067549 91.226297
C 56.099546 101.139179 92.177048
C 57.216676 101.573675 93.098957
C 56.720213 102.671335 94.033110
C 59.014148 99.137133 91.661351
C 57.918752 95.409948 93.537008
C 55.690988 94.856907 93.818967
C 53.296281 95.372459 93.554107
C 54.254986 99.040100 91.706098
C 55.645844 99.939733 90.515040
C 57.313285 100.502018 90.577972
C 55.808022 102.023955 91.577057
C 55.237796 100.868078 92.816046
C 58.060740 102.042029 92.513047
C 57.639515 100.787166 93.720005
C 55.787688 102.377906 94.554566
C 56.400610 103.519822 93.350520
C 57.518558 102.984333 94.714933
C 110.194225 84.579189 92.017743
C 111.055993 85.493716 92.614319
C 112.306288 85.119215 93.061927
C 112.662812 83.799083 92.891182
C 113.936111 83.433982 93.343998
C 114.356033 82.124425 93.196193
C 113.528173 81.211901 92.614319
C 112.265601 81.597443 92.171064
C 111.813173 82.891803 92.301661
C 110.540924 83.255042 91.842391
C 109.663888 82.244044 91.242389
C 108.940748 81.364169 92.199226
C 108.010440 82.117000 93.123594
C 107.312704 81.140880 94.063981
C 109.214654 84.887830 91.672139
C 112.999372 85.808140 93.526545
C 114.593606 84.156179 93.805351
C 115.343209 81.823785 93.543431
C 111.678539 80.814950 91.716333
C 110.198136 81.566250 90.530416
C 108.877766 82.729321 90.596548
C 108.317334 80.667606 91.604282
C 109.609558 80.755248 92.836670
C 107.179913 82.612130 92.540359
C 108.483199 82.878212 93.740154
C 108.035659 80.481495 94.583758
C 106.734349 80.437908 93.386233
C 106.645826 81.677703 94.747575
C 96.242376 25.351263 92.030080
C 95.014267 25.643362 92.614319
C 94.709556 26.915673 93.052748
C 95.676083 27.883609 92.885604
C 95.351685 29.171168 93.328988
C 96.277155 30.188838 93.184167
C 97.486446 29.925177 92.614319
C 97.787694 28.636737 92.180296
C 96.891788 27.598427 92.308275
C 97.217332 26.312675 91.858437
C 98.536649 26.055571 91.271401
C 99.651687 25.874142 92.239089
C 99.456636 24.696798 93.167797
C 100.642470 24.585406 94.119303
C 96.467873 24.346855 91.691590
C 93.762323 27.173813 93.507682
C 94.393459 29.381835 93.780803
C 96.040912 31.195840 93.524183
C 98.762867 28.517247 91.734787
C 98.862842 26.853489 90.558200
C 98.515123 25.128841 90.630074
C 100.571858 25.679490 91.653257
C 99.839014 26.761056 92.873691
C 99.448223 23.727006 92.589416
C 98.555605 24.728767 93.776248
C 100.847472 25.543840 94.636023
C 101.546397 24.432557 93.450306
C 100.504918 23.742968 94.806022
C 102.160199 12.686951 92.020987
C 101.799095 13.892135 92.614319
C 102.748581 14.788862 93.059513
C 104.070106 14.437080 92.889716
C 105.022954 15.358442 93.340051
C 106.367022 15.066912 93.193031
C 106.743345 13.892135 92.614319
C 105.778159 12.990309 92.173491
C 104.430999 13.246042 92.303400
C 103.480289 12.324640 91.846611
C 103.917305 11.057988 91.250019
C 104.317716 9.994369 92.209724
C 103.200585 9.567620 93.135244
C 103.697048 8.477833 94.078570
C 101.403114 11.992019 91.677254
C 102.498509 15.734804 93.521585
C 104.726273 16.290191 93.798896
C 107.120980 15.772435 93.538370
C 106.162275 12.089425 91.721186
C 104.771417 11.179834 90.537714
C 103.103976 10.618097 90.605360
C 104.609239 9.104593 91.617174
C 105.179465 10.270820 92.846425
C 102.356521 9.094369 92.553283
C 102.777746 10.359310 93.749674
C 104.629573 8.775625 94.597547
C 104.016652 7.623651 93.403121
C 102.898703 8.170565 94.762994
C 110.194225 29.010650 92.017743
C 111.055993 29.925177 92.614319
C 112.306288 29.550676 93.061927
C 112.662812 28.230544 92.891182
C 113.936111 27.865443 93.343998
C 114.356033 26.555885 93.196193
C 113.528173 25.643362 92.614319
C 112.265601 26.028904 92.171064
C 111.813173 27.323264 92.301661
C 110.540924 27.686502 91.842391
C 109.663888 26.675504 91.242389
C 108.940748 25.795630 92.199226
C 108.010440 26.548461 93.123594
C 107.312704 25.572341 94.063981
C 109.214654 29.319291 91.672139
C 112.999372 30.239601 93.526545
C 114.593606 28.587639 93.805351
C 115.343209 26.255246 93.543431
C 111.678539 25.246411 91.716333
C 110.198136 25.997711 90.530416
C 108.877766 27.160781 90.596548
C 108.317334 25.099067 91.604282
C 109.609558 25.186709 92.836670
C 107.179913 27.043590 92.540359
C 108.483199 27.309672 93.740154
C 108.035659 24.912956 94.583758
C 106.734349 24.869369 93.386233
C 106.645826 26.109164 94.747575
C 118.201925 40.471220 92.020987
C 117.840821 41.676404 92.614319
C 118.790307 42.573131 93.059513
C 120.111833 42.221349 92.889716
C 121.064680 43.142711 93.340051
C 122.408748 42.851182 93.193031
C 122.785071 41.676404 92.614319
C 121.819885 40.774578 92.173491
C 120.472725 41.030312 92.303400
C 119.522015 40.108909 91.846611
C 119.959031 38.842258 91.250019
C 120.359442 37.778639 92.209724
C 119.242311 37.351890 93.135244
C 119.738774 36.262103 94.078570
C 117.444840 39.776289 91.677254
C 118.540235 43.519074 93.521585
C 120.767999 44.074460 93.798896
C 123.162706 43.556705 93.538370
C 122.204001 39.873694 91.721186
C 120.813143 38.964104 90.537714
C 119.145703 38.402367 90.605360
C 120.650965 36.888862 91.617174
C 121.221191 38.055090 92.846425
C 118.398247 36.878638 92.553283
C 118.819472 38.143580 93.749674
C 120.671299 36.559895 94.597547
C 120.058378 35.407921 93.403121
C 118.940429 35.954835 94.762994
C 128.325828 25.351263 92.030080
C 127.097719 25.643362 92.614319
C 126.793009 26.915673 93.052748
C 127.759535 27.883609 92.885604
C 127.435137 29.171168 93.328988
C 128.360608 30.188838 93.184167
C 129.569899 29.925177 92.614319
C 129.871147 28.636737 92.180296
C 128.975241 27.598427 92.308275
C 129.300784 26.312675 91.858437
C 130.620101 26.055571 91.271401
C 131.735139 25.874142 92.239089
C 131.540088 24.696798 93.167797
C 132.725922 24.585406 94.119303
C 128.551325 24.346855 91.691590
C 125.845775 27.173813 93.507682
C 126.476912 29.381835 93.780803
C 128.124364 31.195840 93.524183
C 130.846319 28.517247 91.734787
C 130.946294 26.853489 90.558200
C 130.598576 25.128841 90.630074
C 132.655311 25.679490 91.653257
C 131.922466 26.761056 92.873691
C 131.531676 23.727006 92.589416
C 130.639058 24.728767 93.776248
C 132.930924 25.543840 94.636023
C 133.629850 24.432557 93.450306
C 132.588370 23.742968 94.806022
C 74.298788 15.092300 92.010900
C 74.659893 13.892135 92.614319
C 73.710406 12.999173 93.067018
C 72.388881 13.349519 92.894276
C 71.436033 12.431966 93.352323
C 70.091966 12.722252 93.202863
C 69.715642 13.892135 92.614319
C 70.680829 14.790232 92.165943
C 72.027988 14.535597 92.297992
C 72.978698 15.453136 91.833491
C 72.541682 16.714740 91.226297
C 72.141272 17.786370 92.177048
C 73.258402 18.220867 93.098957
C 72.761939 19.318526 94.033110
C 75.055874 15.784325 91.661351
C 73.960478 12.057140 93.537008
C 71.732714 11.504098 93.818967
C 69.338007 12.019650 93.554107
C 70.296712 15.687291 91.706098
C 71.687570 16.586924 90.515040
C 73.355011 17.149209 90.577972
C 71.849748 18.671146 91.577057
C 71.279522 17.515269 92.816046
C 74.102466 18.689220 92.513047
C 73.681241 17.434357 93.720005
C 71.829414 19.025097 94.554566
C 72.442336 20.167013 93.350520
C 73.560284 19.631524 94.714933
C 80.222993 2.429322 92.015064
C 81.444720 2.140908 92.614319
C 81.744643 0.871361 93.063920
C 80.779943 -0.097630 92.892394
C 81.099497 -1.382392 93.347257
C 80.175608 -2.400975 93.198804
C 78.972541 -2.140908 92.614319
C 77.700143 -3.564529 92.409713
C 78.676034 -0.855205 92.169059
C 79.570542 0.183912 92.300225
C 79.249911 1.466827 91.838907
C 77.937010 1.720228 91.236090
C 76.811608 1.907640 92.190550
C 76.996673 3.090750 93.113960
C 75.800652 3.208024 94.051912
C 80.001192 3.431596 91.667916
C 82.686907 0.616090 93.530641
C 82.052788 -1.590210 93.810681
C 80.408138 -3.405833 93.547610
C 77.705726 -0.738523 91.712327
C 77.618499 0.917874 90.524394
C 77.965481 2.642948 90.589275
C 75.897814 2.098611 91.593629
C 76.617419 1.024688 92.828604
C 77.011354 4.056922 92.529676
C 77.891089 3.062600 93.732278
C 75.590058 2.252818 94.572348
C 74.903996 3.356674 93.372268
C 75.930820 4.054725 94.734816
C 94.152499 1.226380 92.017743
C 95.014267 2.140908 92.614319
C 96.264562 1.766406 93.061927
C 96.621086 0.446274 92.891182
C 97.894384 0.081173 93.343998
C 98.314307 -1.228384 93.196193
C 97.486446 -2.140908 92.614319
C 98.082792 -3.954859 92.410582
C 96.223875 -1.755366 92.171064
C 95.771447 -0.461005 92.301661
C 94.499198 -0.097767 91.842391
C 93.622162 -1.108765 91.242389
C 92.899022 -1.988640 92.199226
C 91.968714 -1.235809 93.123594
C 91.270977 -2.211929 94.063981
C 93.172928 1.535021 91.672139
C 96.957646 2.455331 93.526545
C 98.551879 0.803370 93.805351
C 99.301483 -1.529024 93.543431
C 95.636813 -2.537858 91.716333
C 94.156410 -1.786559 90.530416
C 92.836040 -0.623488 90.596548
C 92.275608 -2.685203 91.604282
C 93.567832 -2.597561 92.836670
C 91.138187 -0.740679 92.540359
C 92.441472 -0.474597 93.740154
C 91.993933 -2.871314 94.583758
C 90.692623 -2.914901 93.386233
C 90.604100 -1.675106 94.747575
C 126.235951 1.226380 92.017743
C 127.097719 2.140908 92.614319
C 128.348014 1.766406 93.061927
C 128.704538 0.446274 92.891182
C 129.977837 0.081173 93.343998
C 130.397759 -1.228384 93.196193
C 129.569899 -2.140908 92.614319
C 130.166244 -3.954859 92.410582
C 128.307327 -1.755366 92.171064
C 127.854899 -0.461005 92.301661
C 126.582650 -0.097767 91.842391
C 125.705614 -1.108765 91.242389
C 124.982474 -1.988640 92.199226
C 124.052166 -1.235809 93.123594
C 123.354430 -2.211929 94.063981
C 125.256380 1.535021 91.672139
C 129.041098 2.455331 93.526545
C 130.635332 0.803370 93.805351
C 131.384935 -1.529024 93.543431
C 127.720265 -2.537858 91.716333
C 126.239862 -1.786559 90.530416
C 124.919492 -0.623488 90.596548
C 124.359061 -2.685203 91.604282
C 125.651284 -2.597561 92.836670
C 123.221639 -0.740679 92.540359
C 124.524925 -0.474597 93.740154
C 124.077385 -2.871314 94.583758
C 122.776075 -2.914901 93.386233
C 122.687553 -1.675106 94.747575
C 112.306445 2.429322 92.015064
C 113.528173 2.140908 92.614319
C 113.828095 0.871361 93.063920
C 112.863395 -0.097630 92.892394
C 113.182949 -1.382392 93.347257
C 112.259060 -2.400975 93.198804
C 111.055993 -2.140908 92.614319
C 109.783595 -3.564529 92.409713
C 110.759486 -0.855205 92.169059
C 111.653995 0.183912 92.300225
C 111.333364 1.466827 91.838907
C 110.020462 1.720228 91.236090
C 108.895060 1.907640 92.190550
C 109.080125 3.090750 93.113960
C 107.884104 3.208024 94.051912
C 112.084644 3.431596 91.667916
C 114.770359 0.616090 93.530641
C 114.136240 -1.590210 93.810681
C 112.491590 -3.405833 93.547610
C 109.789178 -0.738523 91.712327
C 109.701952 0.917874 90.524394
C 110.048933 2.642948 90.589275
C 107.981266 2.098611 91.593629
C 108.700872 1.024688 92.828604
C 109.094807 4.056922 92.529676
C 109.974542 3.062600 93.732278
C 107.673510 2.252818 94.572348
C 106.987448 3.356674 93.372268
C 108.014272 4.054725 94.734816
C 90.340514 42.876570 92.010900
C 90.701619 41.676404 92.614319
C 89.752132 40.783443 93.067018
C 88.430607 41.133789 92.894276
C 87.477759 40.216236 93.352323
C 86.133692 40.506522 93.202863
C 85.757368 41.676404 92.614319
C 86.722555 42.574502 92.165943
C 88.069714 42.319866 92.297992
C 89.020424 43.237406 91.833491
C 88.583408 44.499010 91.226297
C 88.182998 45.570639 92.177048
C 89.300128 46.005136 93.098957
C 88.803666 47.102796 94.033110
C 91.097600 43.568594 91.661351
C 90.002205 39.841409 93.537008
C 87.774440 39.288368 93.818967
C 85.379733 39.803920 93.554107
C 86.338438 43.471561 91.706098
C 87.729296 44.371194 90.515040
C 89.396737 44.933478 90.577972
C 87.891475 46.455415 91.577057
C 87.321248 45.299538 92.816046
C 90.144192 46.473490 92.513047
C 89.722967 45.218627 93.720005
C 87.871140 46.809367 94.554566
C 88.484062 47.951283 93.350520
C 89.602010 47.415794 94.714933
C 142.277677 29.010650 92.017743
C 143.139445 29.925177 92.614319
C 144.389740 29.550676 93.061927
C 144.746265 28.230544 92.891182
C 146.019563 27.865443 93.343998
C 146.439485 26.555885 93.196193
C 145.611625 25.643362 92.614319
C 146.207970 23.829410 92.410582
C 144.349053 26.028904 92.171064
C 143.896625 27.323264 92.301661
C 142.624376 27.686502 91.842391
C 141.747340 26.675504 91.242389
C 141.024200 25.795630 92.199226
C 140.093892 26.548461 93.123594
C 139.396156 25.572341 94.063981
C 141.298106 29.319291 91.672139
C 145.082824 30.239601 93.526545
C 146.677058 28.587639 93.805351
C 147.426661 26.255246 93.543431
C 143.761991 25.246411 91.716333
C 142.281588 25.997711 90.530416
C 140.961218 27.160781 90.596548
C 140.400787 25.099067 91.604282
C 141.693010 25.186709 92.836670
C 139.263365 27.043590 92.540359
C 140.566651 27.309672 93.740154
C 140.119111 24.912956 94.583758
C 138.817802 24.869369 93.386233
C 138.729279 26.109164 94.747575
C 128.325828 80.919802 92.030080
C 127.097719 81.211901 92.614319
C 126.793009 82.484212 93.052748
C 127.759535 83.452149 92.885604
C 127.435137 84.739707 93.328988
C 128.360608 85.757378 93.184167
C 129.569899 85.493716 92.614319
C 129.871147 84.205276 92.180296
C 128.975241 83.166966 92.308275
C 129.300784 81.881215 91.858437
C 130.620101 81.624110 91.271401
C 131.735139 81.442681 92.239089
C 131.540088 80.265337 93.167797
C 132.725922 80.153945 94.119303
C 128.551325 79.915394 91.691590
C 125.845775 82.742353 93.507682
C 126.476912 84.950375 93.780803
C 128.124364 86.764380 93.524183
C 130.846319 84.085786 91.734787
C 130.946294 82.422028 90.558200
C 130.598576 80.697380 90.630074
C 132.655311 81.248029 91.653257
C 131.922466 82.329595 92.873691
C 131.531676 79.295546 92.589416
C 130.639058 80.297306 93.776248
C 132.930924 81.112379 94.636023
C 133.629850 80.001096 93.450306
C 132.588370 79.311507 94.806022
C 134.243651 68.255490 92.020987
C 133.882547 69.460674 92.614319
C 134.832033 70.357401 93.059513
C 136.153559 70.005619 92.889716
C 137.106407 70.926981 93.340051
C 138.450474 70.635452 93.193031
C 138.826797 69.460674 92.614319
C 137.861611 68.558848 92.173491
C 136.514451 68.814582 92.303400
C 135.563742 67.893179 91.846611
C 136.000757 66.626527 91.250019
C 136.401168 65.562909 92.209724
C 135.284037 65.136159 93.135244
C 135.780500 64.046373 94.078570
C 133.486566 67.560558 91.677254
C 134.581961 71.303343 93.521585
C 136.809725 71.858730 93.798896
C 139.204432 71.340975 93.538370
C 138.245727 67.657964 91.721186
C 136.854870 66.748373 90.537714
C 135.187429 66.186636 90.605360
C 136.692691 64.673132 91.617174
C 137.262917 65.839359 92.846425
C 134.439973 64.662908 92.553283
C 134.861198 65.927849 93.749674
C 136.713025 64.344165 94.597547
C 136.100104 63.192191 93.403121
C 134.982155 63.739104 94.762994
C 142.277677 84.579189 92.017743
C 143.139445 85.493716 92.614319
C 144.389740 85.119215 93.061927
C 144.746265 83.799083 92.891182
C 146.019563 83.433982 93.343998
C 146.439485 82.124425 93.196193
C 145.611625 81.211901 92.614319
C 144.349053 81.597443 92.171064
C 143.896625 82.891803 92.301661
C 142.624376 83.255042 91.842391
C 141.747340 82.244044 91.242389
C 141.024200 81.364169 92.199226
C 140.093892 82.117000 93.123594
C 139.396156 81.140880 94.063981
C 141.298106 84.887830 91.672139
C 145.082824 85.808140 93.526545
C 146.677058 84.156179 93.805351
C 147.426661 81.823785 93.543431
C 143.761991 80.814950 91.716333
C 142.281588 81.566250 90.530416
C 140.961218 82.729321 90.596548
C 140.400787 80.667606 91.604282
C 141.693010 80.755248 92.836670
C 139.263365 82.612130 92.540359
C 140.566651 82.878212 93.740154
C 140.119111 80.481495 94.583758
C 138.817802 80.437908 93.386233
C 138.729279 81.677703 94.747575
C 150.285377 96.039760 92.020987
C 149.924273 97.244944 92.614319
C 150.873759 98.141671 93.059513
C 152.195285 97.789888 92.889716
C 153.148133 98.711251 93.340051
C 154.492200 98.419721 93.193031
C 154.868523 97.244944 92.614319
C 153.903337 96.343117 92.173491
C 152.556177 96.598851 92.303400
C 151.605468 95.677448 91.846611
C 152.042483 94.410797 91.250019
C 152.442894 93.347178 92.209724
C 151.325763 92.920429 93.135244
C 151.822226 91.830642 94.078570
C 149.528292 95.344828 91.677254
C 150.623687 99.087613 93.521585
C 152.851451 99.642999 93.798896
C 155.246158 99.125244 93.538370
C 154.287453 95.442234 91.721186
C 152.896596 94.532643 90.537714
C 151.229155 93.970906 90.605360
C 152.734417 92.457402 91.617174
C 153.304644 93.623629 92.846425
C 150.481699 92.447177 92.553283
C 150.902924 93.712119 93.749674
C 152.754752 92.128434 94.597547
C 152.141830 90.976460 93.403121
C 151.023881 91.523374 94.762994
C 160.409280 80.919802 92.030080
C 159.181171 81.211901 92.614319
C 158.876461 82.484212 93.052748
C 159.842987 83.452149 92.885604
C 159.518590 84.739707 93.328988
C 160.444060 85.757378 93.184167
C 161.653351 85.493716 92.614319
C 161.954599 84.205276 92.180296
C 161.058693 83.166966 92.308275
C 161.384236 81.881215 91.858437
C 162.703553 81.624110 91.271401
C 163.818592 81.442681 92.239089
C 163.623541 80.265337 93.167797
C 164.809374 80.153945 94.119303
C 160.634778 79.915394 91.691590
C 157.929228 82.742353 93.507682
C 158.560364 84.950375 93.780803
C 160.207816 86.764380 93.524183
C 162.929772 84.085786 91.734787
C 163.029746 82.422028 90.558200
C 162.682028 80.697380 90.630074
C 164.738763 81.248029 91.653257
C 164.005919 82.329595 92.873691
C 163.615128 79.295546 92.589416
C 162.722510 80.297306 93.776248
C 165.014376 81.112379 94.636023
C 165.713302 80.001096 93.450306
C 164.671822 79.311507 94.806022
C 106.382240 70.660840 92.010900
C 106.743345 69.460674 92.614319
C 105.793858 68.567712 93.067018
C 104.472333 68.918058 92.894276
C 103.519485 68.000505 93.352323
C 102.175418 68.290791 93.202863
C 101.799095 69.460674 92.614319
C 102.764281 70.358771 92.165943
C 104.111440 70.104136 92.297992
C 105.062150 71.021675 91.833491
C 104.625134 72.283279 91.226297
C 104.224724 73.354909 92.177048
C 105.341854 73.789406 93.098957
C 104.845392 74.887065 94.033110
C 107.139326 71.352864 91.661351
C 106.043931 67.625679 93.537008
C 103.816166 67.072637 93.818967
C 101.421459 67.588189 93.554107
C 102.380165 71.255830 91.706098
C 103.771022 72.155463 90.515040
C 105.438463 72.717748 90.577972
C 103.933201 74.239685 91.577057
C 103.362974 73.083808 92.816046
C 106.185919 74.257760 92.513047
C 105.764693 73.002897 93.720005
C 103.912866 74.593636 94.554566
C 104.525788 75.735553 93.350520
C 105.643736 75.200063 94.714933
C 112.306445 57.997862 92.015064
C 113.528173 57.709447 92.614319
C 113.828095 56.439901 93.063920
C 112.863395 55.470910 92.892394
C 113.182949 54.186148 93.347257
C 112.259060 53.167564 93.198804
C 111.055993 53.427632 92.614319
C 110.759486 54.713334 92.169059
C 111.653995 55.752452 92.300225
C 111.333364 57.035367 91.838907
C 110.020462 57.288767 91.236090
C 108.895060 57.476180 92.190550
C 109.080125 58.659290 93.113960
C 107.884104 58.776563 94.051912
C 112.084644 59.000136 91.667916
C 114.770359 56.184629 93.530641
C 114.136240 53.978329 93.810681
C 112.491590 52.162706 93.547610
C 109.789178 54.830016 91.712327
C 109.701952 56.486413 90.524394
C 110.048933 58.211487 90.589275
C 107.981266 57.667150 91.593629
C 108.700872 56.593228 92.828604
C 109.094807 59.625462 92.529676
C 109.974542 58.631139 93.732278
C 107.673510 57.821357 94.572348
C 106.987448 58.925214 93.372268
C 108.014272 59.623264 94.734816
C 126.235951 56.794919 92.017743
C 127.097719 57.709447 92.614319
C 128.348014 57.334946 93.061927
C 128.704538 56.014814 92.891182
C 129.977837 55.649712 93.343998
C 130.397759 54.340155 93.196193
C 129.569899 53.427632 92.614319
C 128.307327 53.813174 92.171064
C 127.854899 55.107534 92.301661
C 126.582650 55.470772 91.842391
C 125.705614 54.459774 91.242389
C 124.982474 53.579899 92.199226
C 124.052166 54.332730 93.123594
C 123.354430 53.356611 94.063981
C 125.256380 57.103561 91.672139
C 129.041098 58.023870 93.526545
C 130.635332 56.371909 93.805351
C 131.384935 54.039516 93.543431
C 127.720265 53.030681 91.716333
C 126.239862 53.781980 90.530416
C 124.919492 54.945051 90.596548
C 124.359061 52.883336 91.604282
C 125.651284 52.970978 92.836670
C 123.221639 54.827860 92.540359
C 124.524925 55.093942 93.740154
C 124.077385 52.697226 94.583758
C 122.776075 52.653638 93.386233
C 122.687553 53.893433 94.747575
C 158.319403 56.794919 92.017743
C 159.181171 57.709447 92.614319
C 160.431466 57.334946 93.061927
C 160.787991 56.014814 92.891182
C 162.061289 55.649712 93.343998
C 162.481211 54.340155 93.196193
C 161.653351 53.427632 92.614319
C 162.249696 51.613680 92.410582
C 160.390780 53.813174 92.171064
C 159.938352 55.107534 92.301661
C 158.666102 55.470772 91.842391
C 157.789066 54.459774 91.242389
C 157.065926 53.579899 92.199226
C 156.135618 54.332730 93.123594
C 155.437882 53.356611 94.063981
C 157.339832 57.103561 91.672139
C 161.124551 58.023870 93.526545
C 162.718784 56.371909 93.805351
C 163.468387 54.039516 93.543431
C 159.803717 53.030681 91.716333
C 158.323314 53.781980 90.530416
C 157.002944 54.945051 90.596548
C 156.442513 52.883336 91.604282
C 157.734736 52.970978 92.836670
C 155.305091 54.827860 92.540359
C 156.608377 55.093942 93.740154
C 156.160837 52.697226 94.583758
C 154.859528 52.653638 93.386233
C 154.771005 53.893433 94.747575
C 144.389897 57.997862 92.015064
C 145.611625 57.709447 92.614319
C 145.911547 56.439901 93.063920
C 144.946847 55.470910 92.892394
C 145.266401 54.186148 93.347257
C 144.342512 53.167564 93.198804
C 143.139445 53.427632 92.614319
C 142.842938 54.713334 92.169059
C 143.737447 55.752452 92.300225
C 143.416816 57.035367 91.838907
C 142.103914 57.288767 91.236090
C 140.978512 57.476180 92.190550
C 141.163577 58.659290 93.113960
C 139.967556 58.776563 94.051912
C 144.168096 59.000136 91.667916
C 146.853811 56.184629 93.530641
C 146.219693 53.978329 93.810681
C 144.575042 52.162706 93.547610
C 141.872630 54.830016 91.712327
C 141.785404 56.486413 90.524394
C 142.132385 58.211487 90.589275
C 140.064718 57.667150 91.593629
C 140.784324 56.593228 92.828604
C 141.178259 59.625462 92.529676
C 142.057994 58.631139 93.732278
C 139.756963 57.821357 94.572348
C 139.070900 58.925214 93.372268
C 140.097724 59.623264 94.734816
C 122.423967 98.445109 92.010900
C 122.785071 97.244944 92.614319
C 121.835585 96.351982 93.067018
C 120.514059 96.702328 92.894276
C 119.561211 95.784775 93.352323
C 118.217144 96.075061 93.202863
C 117.840821 97.244944 92.614319
C 118.806007 98.143041 92.165943
C 120.153166 97.888406 92.297992
C 121.103876 98.805945 91.833491
C 120.666860 100.067549 91.226297
C 120.266450 101.139179 92.177048
C 121.383580 101.573675 93.098957
C 120.887118 102.671335 94.033110
C 123.181052 99.137133 91.661351
C 122.085657 95.409948 93.537008
C 119.857893 94.856907 93.818967
C 117.463186 95.372459 93.554107
C 118.421891 99.040100 91.706098
C 119.812748 99.939733 90.515040
C 121.480189 100.502018 90.577972
C 119.974927 102.023955 91.577057
C 119.404700 100.868078 92.816046
C 122.227645 102.042029 92.513047
C 121.806420 100.787166 93.720005
C 119.954592 102.377906 94.554566
C 120.567514 103.519822 93.350520
C 121.685463 102.984333 94.714933
C 174.361129 84.579189 92.017743
C 175.222897 85.493716 92.614319
C 176.473192 85.119215 93.061927
C 176.829717 83.799083 92.891182
C 178.103015 83.433982 93.343998
C 178.522937 82.124425 93.196193
C 177.695077 81.211901 92.614319
C 178.291422 79.397950 92.410582
C 176.432506 81.597443 92.171064
C 175.980078 82.891803 92.301661
C 174.707828 83.255042 91.842391
C 173.830792 82.244044 91.242389
C 173.107653 81.364169 92.199226
C 172.177344 82.117000 93.123594
C 171.479608 81.140880 94.063981
C 173.381558 84.887830 91.672139
C 177.166277 85.808140 93.526545
C 178.760510 84.156179 93.805351
C 179.510113 81.823785 93.543431
C 175.845443 80.814950 91.716333
C 174.365040 81.566250 90.530416
C 173.044670 82.729321 90.596548
C 172.484239 80.667606 91.604282
C 173.776462 80.755248 92.836670
C 171.346817 82.612130 92.540359
C 172.650103 82.878212 93.740154
C 172.202563 80.481495 94.583758
C 170.901254 80.437908 93.386233
C 170.812731 81.677703 94.747575
