52

C 40.353959 39.474428 18.705762
C 39.418197 40.413989 18.705779
C 38.236108 39.522520 18.705763
C 37.396251 39.605739 19.764858
C 39.277335 38.486775 18.705779
C 40.353959 45.749845 18.705762
C 39.418197 46.689406 18.705779
C 38.236108 45.797937 18.705763
C 37.396251 45.881156 19.764858
C 39.277335 44.762192 18.705779
C 46.629376 39.474428 18.705762
C 45.693614 40.413989 18.705779
C 44.511525 39.522520 18.705763
C 43.671669 39.605739 19.764858
C 45.552752 38.486775 18.705779
C 46.629376 45.749845 18.705762
C 45.693614 46.689406 18.705779
C 44.511525 45.797937 18.705763
C 43.671669 45.881156 19.764858
C 45.552752 44.762192 18.705779
C 41.509202 38.904939 18.882265
C 42.824018 38.904939 18.882265
C 42.729600 40.330004 18.882265
C 41.467669 40.318813 18.882255
C 39.591953 42.004931 18.882263
C 39.591953 43.319747 18.882263
C 38.166888 43.225329 18.882268
C 38.178079 41.963397 18.882258
C 41.509202 45.180357 18.882265
C 42.824018 45.180357 18.882265
C 42.729600 46.605421 18.882265
C 41.467669 46.594231 18.882255
C 39.591953 48.280348 18.882263
C 39.591953 49.595164 18.882263
C 38.166888 49.500746 18.882268
C 38.178079 48.238815 18.882258
C 47.784620 38.904939 18.882265
C 49.099436 38.904939 18.882265
C 49.005018 40.330004 18.882265
C 47.743086 40.318813 18.882255
C 45.867370 42.004931 18.882263
C 45.867370 43.319747 18.882263
C 44.442306 43.225329 18.882268
C 44.453496 41.963397 18.882258
C 47.784620 45.180357 18.882265
C 49.099436 45.180357 18.882265
C 49.005018 46.605421 18.882265
C 47.743086 46.594231 18.882255
C 45.867370 48.280348 18.882263
C 45.867370 49.595164 18.882263
C 44.442306 49.500746 18.882268
C 44.453496 48.238815 18.882258
