192

C 51.885196 36.616403 60.156201
C 51.092962 35.388245 59.777280
C 51.226589 34.202671 60.493586
C 50.131634 34.238520 61.068406
C 49.784666 35.437120 60.469281
C 48.961706 36.635019 60.157116
C 49.767220 37.825944 59.771434
C 51.191914 37.870214 60.009437
C 57.123656 35.894005 60.156201
C 57.915891 37.122162 59.777280
C 57.782263 38.307737 60.493586
C 58.877218 38.271888 61.068406
C 59.224186 37.073288 60.469281
C 60.047146 35.875389 60.157116
C 59.241632 34.684464 59.771434
C 57.816938 34.640193 60.009437
C 53.486426 30.316750 60.156201
C 54.946160 30.244752 59.777280
C 55.906075 30.953277 60.493586
C 56.422518 29.987100 61.068406
C 55.557996 29.087305 60.469281
C 54.932081 27.775644 60.157116
C 53.497951 27.877759 59.771434
C 52.747250 29.089435 60.009437
C 59.944374 50.574899 60.156201
C 59.152140 49.346742 59.777280
C 59.285768 48.161167 60.493586
C 58.190812 48.197016 61.068406
C 57.843844 49.395616 60.469281
C 57.020884 50.593515 60.157116
C 57.826398 51.784440 59.771434
C 59.251093 51.828710 60.009437
C 65.182834 49.852501 60.156201
C 65.975069 51.080659 59.777280
C 65.841441 52.266233 60.493586
C 66.936396 52.230384 61.068406
C 67.283365 51.031784 60.469281
C 68.106324 49.833885 60.157116
C 67.300810 48.642960 59.771434
C 65.876116 48.598690 60.009437
C 61.545604 44.275246 60.156201
C 63.005338 44.203248 59.777280
C 63.965253 44.911773 60.493586
C 64.481696 43.945596 61.068406
C 63.617174 43.045801 60.469281
C 62.991259 41.734140 60.157116
C 61.557130 41.836255 59.771434
C 60.806428 43.047932 60.009437
C 68.003552 36.616403 60.156201
C 67.211318 35.388245 59.777280
C 67.344946 34.202671 60.493586
C 66.249990 34.238520 61.068406
C 65.903022 35.437120 60.469281
C 65.080062 36.635019 60.157116
C 65.885577 37.825944 59.771434
C 67.310271 37.870214 60.009437
C 73.242012 35.894005 60.156201
C 74.034247 37.122162 59.777280
C 73.900619 38.307737 60.493586
C 74.995574 38.271888 61.068406
C 75.342543 37.073288 60.469281
C 76.165502 35.875389 60.157116
C 75.359988 34.684464 59.771434
C 73.935294 34.640193 60.009437
C 69.604782 30.316750 60.156201
C 71.064516 30.244752 59.777280
C 72.024431 30.953277 60.493586
C 72.540874 29.987100 61.068406
C 71.676352 29.087305 60.469281
C 71.050438 27.775644 60.157116
C 69.616308 27.877759 59.771434
C 68.865606 29.089435 60.009437
C 76.062730 50.574899 60.156201
C 75.270496 49.346742 59.777280
C 75.404124 48.161167 60.493586
C 74.309169 48.197016 61.068406
C 73.962200 49.395616 60.469281
C 73.139240 50.593515 60.157116
C 73.944755 51.784440 59.771434
C 75.369449 51.828710 60.009437
C 81.301190 49.852501 60.156201
C 82.093425 51.080659 59.777280
C 81.959797 52.266233 60.493586
C 83.054752 52.230384 61.068406
C 83.401721 51.031784 60.469281
C 84.224680 49.833885 60.157116
C 83.419166 48.642960 59.771434
C 81.994472 48.598690 60.009437
C 77.663960 44.275246 60.156201
C 79.123694 44.203248 59.777280
C 80.083609 44.911773 60.493586
C 80.600052 43.945596 61.068406
C 79.735530 43.045801 60.469281
C 79.109616 41.734140 60.157116
C 77.675486 41.836255 59.771434
C 76.924784 43.047932 60.009437
C 53.867838 35.820435 60.132336
C 55.182654 35.820435 60.132336
C 55.088236 37.245499 60.132336
C 53.826305 37.234309 60.132326
C 51.794813 33.099487 60.132334
C 52.452235 31.960832 60.132334
C 53.639158 32.755148 60.132342
C 52.998487 33.842409 60.132332
C 56.461003 33.534266 60.132334
C 55.803581 32.395610 60.132334
C 57.084924 31.764830 60.132340
C 57.706212 32.863282 60.132330
C 47.081836 36.689973 60.132334
C 45.767020 36.689973 60.132334
C 45.861438 35.264908 60.132340
C 47.123369 35.276099 60.132330
C 49.154862 39.410920 60.132335
C 48.497439 40.549576 60.132335
C 47.310516 39.755260 60.132340
C 47.951187 38.667999 60.132330
C 60.607027 38.976142 60.132335
C 61.264449 40.114797 60.132335
C 59.983106 40.745577 60.132339
C 59.361818 39.647125 60.132329
C 61.927017 49.778931 60.132336
C 63.241832 49.778931 60.132336
C 63.147415 51.203996 60.132336
C 61.885483 51.192805 60.132326
C 59.853991 47.057984 60.132334
C 60.511413 45.919328 60.132334
C 61.698336 46.713644 60.132342
C 61.057665 47.800905 60.132332
C 64.520181 47.492762 60.132334
C 63.862759 46.354107 60.132334
C 65.144102 45.723326 60.132340
C 65.765391 46.821779 60.132330
C 55.141014 50.648469 60.132334
C 53.826198 50.648469 60.132334
C 53.920616 49.223404 60.132340
C 55.182547 49.234595 60.132330
C 57.214040 53.369416 60.132335
C 56.556617 54.508072 60.132335
C 55.369694 53.713756 60.132340
C 56.010365 52.626495 60.132330
C 68.666205 52.934638 60.132335
C 69.323628 54.073294 60.132335
C 68.042284 54.704074 60.132339
C 67.420996 53.605622 60.132329
C 69.986195 35.820435 60.132336
C 71.301011 35.820435 60.132336
C 71.206593 37.245499 60.132336
C 69.944661 37.234309 60.132326
C 67.913169 33.099487 60.132334
C 68.570591 31.960832 60.132334
C 69.757514 32.755148 60.132342
C 69.116843 33.842409 60.132332
C 72.579360 33.534266 60.132334
C 71.921937 32.395610 60.132334
C 73.203280 31.764830 60.132340
C 73.824569 32.863282 60.132330
C 63.200192 36.689973 60.132334
C 61.885376 36.689973 60.132334
C 61.979794 35.264908 60.132340
C 63.241725 35.276099 60.132330
C 65.273218 39.410920 60.132335
C 64.615795 40.549576 60.132335
C 63.428872 39.755260 60.132340
C 64.069543 38.667999 60.132330
C 76.725383 38.976142 60.132335
C 77.382806 40.114797 60.132335
C 76.101462 40.745577 60.132339
C 75.480174 39.647125 60.132329
C 78.045373 49.778931 60.132336
C 79.360189 49.778931 60.132336
C 79.265771 51.203996 60.132336
C 78.003839 51.192805 60.132326
C 75.972347 47.057984 60.132334
C 76.629769 45.919328 60.132334
C 77.816692 46.713644 60.132342
C 77.176022 47.800905 60.132332
C 80.638538 47.492762 60.132334
C 79.981115 46.354107 60.132334
C 81.262458 45.723326 60.132340
C 81.883747 46.821779 60.132330
C 71.259370 50.648469 60.132334
C 69.944554 50.648469 60.132334
C 70.038972 49.223404 60.132340
C 71.300904 49.234595 60.132330
C 73.332396 53.369416 60.132335
C 72.674973 54.508072 60.132335
C 71.488050 53.713756 60.132340
C 72.128721 52.626495 60.132330
C 84.784561 52.934638 60.132335
C 85.441984 54.073294 60.132335
C 84.160641 54.704074 60.132339
C 83.539352 53.605622 60.132329
