192

C 27.461109 27.021989 60.239615
C 26.668875 25.793832 59.860694
C 26.802503 24.608257 60.577000
C 25.707547 24.644107 61.151820
C 25.360579 25.842707 60.552694
C 24.537619 27.040605 60.240529
C 25.343133 28.231531 59.854848
C 26.767828 28.275801 60.092850
C 45.346406 27.021989 60.239615
C 46.138641 28.250147 59.860694
C 46.005013 29.435721 60.577000
C 47.099968 29.399872 61.151820
C 47.446937 28.201272 60.552694
C 48.269896 27.003373 60.240529
C 47.464382 25.812448 59.854848
C 46.039688 25.768178 60.092850
C 35.674529 10.270354 60.239615
C 37.134263 10.198356 59.860694
C 38.094178 10.906880 60.577000
C 38.610621 9.940703 61.151820
C 37.746099 9.040909 60.552694
C 37.120185 7.729247 60.240529
C 35.686055 7.831362 59.854848
C 34.935353 9.043039 60.092850
C 48.263256 63.051309 60.239615
C 47.471022 61.823151 59.860694
C 47.604650 60.637577 60.577000
C 46.509695 60.673426 61.151820
C 46.162726 61.872026 60.552694
C 45.339766 63.069925 60.240529
C 46.145281 64.260850 59.854848
C 47.569975 64.305120 60.092850
C 66.148554 63.051309 60.239615
C 66.940788 64.279466 59.860694
C 66.807160 65.465040 60.577000
C 67.902116 65.429191 61.151820
C 68.249084 64.230591 60.552694
C 69.072044 63.032692 60.240529
C 68.266529 61.841767 59.854848
C 66.841835 61.797497 60.092850
C 56.476677 46.299673 60.239615
C 57.936410 46.227675 59.860694
C 58.896325 46.936199 60.577000
C 59.412769 45.970022 61.151820
C 58.548246 45.070228 60.552694
C 57.922332 43.758567 60.240529
C 56.488202 43.860682 59.854848
C 55.737500 45.072358 60.092850
C 69.065404 27.021989 60.239615
C 68.273169 25.793832 59.860694
C 68.406797 24.608257 60.577000
C 67.311842 24.644107 61.151820
C 66.964874 25.842707 60.552694
C 66.141914 27.040605 60.240529
C 66.947428 28.231531 59.854848
C 68.372122 28.275801 60.092850
C 86.950701 27.021989 60.239615
C 87.742935 28.250147 59.860694
C 87.609308 29.435721 60.577000
C 88.704263 29.399872 61.151820
C 89.051231 28.201272 60.552694
C 89.874191 27.003373 60.240529
C 89.068677 25.812448 59.854848
C 87.643983 25.768178 60.092850
C 77.278824 10.270354 60.239615
C 78.738557 10.198356 59.860694
C 79.698472 10.906880 60.577000
C 80.214916 9.940703 61.151820
C 79.350393 9.040909 60.552694
C 78.724479 7.729247 60.240529
C 77.290349 7.831362 59.854848
C 76.539648 9.043039 60.092850
C 89.867551 63.051309 60.239615
C 89.075317 61.823151 59.860694
C 89.208944 60.637577 60.577000
C 88.113989 60.673426 61.151820
C 87.767021 61.872026 60.552694
C 86.944061 63.069925 60.240529
C 87.749575 64.260850 59.854848
C 89.174270 64.305120 60.092850
C 107.752848 63.051309 60.239615
C 108.545083 64.279466 59.860694
C 108.411455 65.465040 60.577000
C 109.506410 65.429191 61.151820
C 109.853379 64.230591 60.552694
C 110.676338 63.032692 60.240529
C 109.870824 61.841767 59.854848
C 108.446130 61.797497 60.092850
C 98.080971 46.299673 60.239615
C 99.540705 46.227675 59.860694
C 100.500620 46.936199 60.577000
C 101.017063 45.970022 61.151820
C 100.152541 45.070228 60.552694
C 99.526627 43.758567 60.240529
C 98.092497 43.860682 59.854848
C 97.341795 45.072358 60.092850
C 35.746350 27.021989 60.048921
C 37.061166 27.021989 60.048921
C 36.966748 28.447054 60.048921
C 35.704816 28.435864 60.048911
C 30.874510 18.583987 60.048921
C 31.531932 17.445332 60.048921
C 32.718855 18.239648 60.048929
C 32.078185 19.326909 60.048919
C 41.933006 18.583987 60.048921
C 41.275583 17.445332 60.048921
C 42.556927 16.814551 60.048927
C 43.178215 17.913004 60.048918
C 16.259018 27.021989 60.048921
C 14.944203 27.021989 60.048921
C 15.038620 25.596925 60.048927
C 16.300552 25.608115 60.048917
C 21.130859 35.459991 60.048921
C 20.473436 36.598647 60.048921
C 19.286513 35.804331 60.048926
C 19.927184 34.717070 60.048916
C 51.676657 35.459991 60.048921
C 52.334080 36.598647 60.048921
C 51.052736 37.229427 60.048926
C 50.431448 36.130975 60.048916
C 56.548497 63.051309 60.048921
C 57.863313 63.051309 60.048921
C 57.768895 64.476373 60.048921
C 56.506964 64.465183 60.048911
C 51.676657 54.613307 60.048921
C 52.334080 53.474651 60.048921
C 53.521003 54.268967 60.048929
C 52.880332 55.356228 60.048919
C 62.735153 54.613307 60.048921
C 62.077731 53.474651 60.048921
C 63.359074 52.843871 60.048927
C 63.980362 53.942323 60.048918
C 37.061166 63.051309 60.048921
C 35.746350 63.051309 60.048921
C 35.840768 61.626244 60.048927
C 37.102699 61.637434 60.048917
C 41.933006 71.489310 60.048921
C 41.275583 72.627966 60.048921
C 40.088660 71.833650 60.048926
C 40.729331 70.746389 60.048916
C 72.478804 71.489310 60.048921
C 73.136227 72.627966 60.048921
C 71.854884 73.258746 60.048926
C 71.233595 72.160294 60.048916
C 77.350644 27.021989 60.048921
C 78.665460 27.021989 60.048921
C 78.571042 28.447054 60.048921
C 77.309111 28.435864 60.048911
C 72.478804 18.583987 60.048921
C 73.136227 17.445332 60.048921
C 74.323150 18.239648 60.048929
C 73.682479 19.326909 60.048919
C 83.537301 18.583987 60.048921
C 82.879878 17.445332 60.048921
C 84.161221 16.814551 60.048927
C 84.782510 17.913004 60.048918
C 57.863313 27.021989 60.048921
C 56.548497 27.021989 60.048921
C 56.642915 25.596925 60.048927
C 57.904847 25.608115 60.048917
C 62.735153 35.459991 60.048921
C 62.077731 36.598647 60.048921
C 60.890808 35.804331 60.048926
C 61.531478 34.717070 60.048916
C 93.280952 35.459991 60.048921
C 93.938374 36.598647 60.048921
C 92.657031 37.229427 60.048926
C 92.035743 36.130975 60.048916
C 98.152792 63.051309 60.048921
C 99.467608 63.051309 60.048921
C 99.373190 64.476373 60.048921
C 98.111258 64.465183 60.048911
C 93.280952 54.613307 60.048921
C 93.938374 53.474651 60.048921
C 95.125297 54.268967 60.048929
C 94.484626 55.356228 60.048919
C 104.339448 54.613307 60.048921
C 103.682025 53.474651 60.048921
C 104.963369 52.843871 60.048927
C 105.584657 53.942323 60.048918
C 78.665460 63.051309 60.048921
C 77.350644 63.051309 60.048921
C 77.445062 61.626244 60.048927
C 78.706994 61.637434 60.048917
C 83.537301 71.489310 60.048921
C 82.879878 72.627966 60.048921
C 81.692955 71.833650 60.048926
C 82.333626 70.746389 60.048916
C 114.083099 71.489310 60.048921
C 114.740521 72.627966 60.048921
C 113.459178 73.258746 60.048926
C 112.837890 72.160294 60.048916
