336

C 53.901765 31.342844 71.778131
C 54.559187 32.481499 71.778131
C 53.277844 33.112280 71.778136
C 52.656555 32.013828 71.778126
C 55.613098 27.509330 71.778133
C 56.927914 27.509330 71.778133
C 56.833496 28.934394 71.778132
C 55.571564 28.923204 71.778122
C 57.961005 32.445438 71.778130
C 58.618427 31.306782 71.778130
C 59.805350 32.101098 71.778138
C 59.164680 33.188359 71.778128
C 60.425374 35.844193 71.778133
C 61.740190 35.844193 71.778133
C 61.645772 37.269257 71.778132
C 60.383841 37.258067 71.778122
C 63.526318 31.342844 71.778131
C 64.183740 32.481499 71.778131
C 62.902397 33.112280 71.778136
C 62.281109 32.013828 71.778126
C 47.261720 28.378868 71.778131
C 45.946904 28.378868 71.778131
C 46.041322 26.953803 71.778136
C 47.303253 26.964993 71.778127
C 63.526318 48.012570 71.778131
C 64.183740 49.151226 71.778131
C 62.902397 49.782006 71.778136
C 62.281109 48.683554 71.778126
C 65.237651 44.179056 71.778133
C 66.552467 44.179056 71.778133
C 66.458049 45.604121 71.778132
C 65.196118 45.592930 71.778122
C 70.049928 52.513919 71.778133
C 71.364744 52.513919 71.778133
C 71.270326 53.938984 71.778132
C 70.008394 53.927793 71.778122
C 73.150871 48.012570 71.778131
C 73.808293 49.151226 71.778131
C 72.526950 49.782006 71.778136
C 71.905662 48.683554 71.778126
C 61.698550 53.383457 71.778131
C 60.383734 53.383457 71.778131
C 60.478152 51.958392 71.778136
C 61.740083 51.969583 71.778127
C 73.150871 31.342844 71.778131
C 73.808293 32.481499 71.778131
C 72.526950 33.112280 71.778136
C 71.905662 32.013828 71.778126
C 77.210111 32.445438 71.778130
C 77.867534 31.306782 71.778130
C 79.054457 32.101098 71.778138
C 78.413786 33.188359 71.778128
C 82.775424 31.342844 71.778131
C 83.432847 32.481499 71.778131
C 82.151504 33.112280 71.778136
C 81.530215 32.013828 71.778126
C 66.510826 28.378868 71.778131
C 65.196010 28.378868 71.778131
C 65.290428 26.953803 71.778136
C 66.552360 26.964993 71.778127
C 68.222160 24.545353 71.778131
C 67.564737 23.406698 71.778131
C 68.846080 22.775917 71.778137
C 69.467369 23.874370 71.778127
C 72.397835 24.110575 71.778130
C 73.055257 22.971919 71.778130
C 74.242180 23.766235 71.778138
C 73.601509 24.853496 71.778128
C 71.323103 36.713731 71.778131
C 70.008287 36.713731 71.778131
C 70.102705 35.288666 71.778136
C 71.364637 35.299856 71.778127
C 86.834664 32.445438 71.778130
C 87.492087 31.306782 71.778130
C 88.679010 32.101098 71.778138
C 88.038339 33.188359 71.778128
C 82.775424 48.012570 71.778131
C 83.432847 49.151226 71.778131
C 82.151504 49.782006 71.778136
C 81.530215 48.683554 71.778126
C 84.486758 44.179056 71.778133
C 85.801573 44.179056 71.778133
C 85.707156 45.604121 71.778132
C 84.445224 45.592930 71.778122
C 91.646941 40.780301 71.778130
C 92.304364 39.641645 71.778130
C 93.491287 40.435961 71.778138
C 92.850616 41.523223 71.778128
C 87.471266 41.215080 71.778131
C 86.813844 40.076424 71.778131
C 88.095187 39.445644 71.778137
C 88.716475 40.544096 71.778127
C 49.012508 24.589623 71.778127
C 48.318780 23.388086 71.778127
C 49.552515 22.749944 71.778139
C 50.166230 23.842229 71.778140
C 53.130115 24.166878 71.778126
C 53.823843 22.965341 71.778126
C 54.993339 23.714745 71.778143
C 54.354222 24.792365 71.778145
C 62.754668 24.166878 71.778126
C 63.448396 22.965341 71.778126
C 64.617892 23.714745 71.778143
C 63.978776 24.792365 71.778145
C 58.637061 24.589623 71.778127
C 57.943333 23.388086 71.778127
C 59.177068 22.749944 71.778139
C 59.790783 23.842229 71.778140
C 52.132063 36.701698 71.778128
C 50.744637 36.701698 71.778128
C 50.808875 35.314182 71.778137
C 52.061679 35.328847 71.778139
C 67.566945 32.501741 71.778126
C 68.260673 31.300204 71.778126
C 69.430169 32.049609 71.778143
C 68.791052 33.127228 71.778145
C 67.566945 49.171467 71.778126
C 68.260673 47.969930 71.778126
C 69.430169 48.719335 71.778143
C 68.791052 49.796954 71.778145
C 56.944339 45.036561 71.778128
C 55.556914 45.036561 71.778128
C 55.621152 43.649045 71.778137
C 56.873956 43.663710 71.778139
C 58.637061 41.259349 71.778127
C 57.943333 40.057812 71.778127
C 59.177068 39.419671 71.778139
C 59.790783 40.511956 71.778140
C 62.754668 40.836604 71.778126
C 63.448396 39.635067 71.778126
C 64.617892 40.384472 71.778143
C 63.978776 41.462091 71.778145
C 72.379222 40.836604 71.778126
C 73.072950 39.635067 71.778126
C 74.242445 40.384472 71.778143
C 73.603329 41.462091 71.778145
C 68.261614 41.259349 71.778127
C 67.567886 40.057812 71.778127
C 68.801621 39.419671 71.778139
C 69.415337 40.511956 71.778140
C 74.804138 27.521363 71.778141
C 76.191564 27.521363 71.778141
C 76.127326 28.908878 71.778108
C 74.874521 28.894213 71.778110
C 79.616415 35.856226 71.778141
C 81.003840 35.856226 71.778141
C 80.939602 37.243742 71.778108
C 79.686798 37.229076 71.778110
C 82.003775 24.166878 71.778126
C 82.697503 22.965341 71.778126
C 83.866998 23.714745 71.778143
C 83.227882 24.792365 71.778145
C 77.886167 24.589623 71.778127
C 77.192439 23.388086 71.778127
C 78.426174 22.749944 71.778139
C 79.039890 23.842229 71.778140
C 86.816051 49.171467 71.778126
C 87.509780 47.969930 71.778126
C 88.679275 48.719335 71.778143
C 88.040159 49.796954 71.778145
C 89.240968 52.525952 71.778141
C 90.628394 52.525952 71.778141
C 90.564156 53.913468 71.778108
C 89.311351 53.898803 71.778110
C 92.360523 47.968300 71.778130
C 93.054251 49.169837 71.778130
C 91.820516 49.807979 71.778132
C 91.206801 48.715694 71.778134
C 76.193446 45.036561 71.778128
C 74.806020 45.036561 71.778128
C 74.870258 43.649045 71.778137
C 76.123063 43.663710 71.778139
C 77.886167 41.259349 71.778127
C 77.192439 40.057812 71.778127
C 78.426174 39.419671 71.778139
C 79.039890 40.511956 71.778140
C 82.003775 40.836604 71.778126
C 82.697503 39.635067 71.778126
C 83.866998 40.384472 71.778143
C 83.227882 41.462091 71.778145
C 77.191498 49.171467 71.778126
C 77.885226 47.969930 71.778126
C 79.054722 48.719335 71.778143
C 78.415606 49.796954 71.778145
C 81.005723 53.371424 71.778128
C 79.618297 53.371424 71.778128
C 79.682535 51.983908 71.778137
C 80.935339 51.998573 71.778139
C 96.440605 49.171467 71.778126
C 97.134333 47.969930 71.778126
C 98.303828 48.719335 71.778143
C 97.664712 49.796954 71.778145
C 51.013984 29.594538 71.704400
C 50.131405 28.428956 71.888839
C 48.816006 28.085088 72.397835
C 49.432594 26.870525 72.796516
C 50.275208 27.016851 71.589597
C 51.592095 26.419209 71.623938
C 52.966088 26.950509 71.674572
C 53.353970 28.365393 71.626104
C 52.467362 29.547852 71.552741
C 55.032045 35.087076 71.704400
C 56.482754 34.905495 71.888839
C 57.438227 33.938236 72.397835
C 58.181804 35.079479 72.796516
C 57.633792 35.736055 71.589597
C 57.492959 37.175337 71.623938
C 56.345866 38.099629 71.674572
C 54.926590 37.728138 71.626104
C 54.345820 36.369099 71.552741
C 69.045486 45.072369 71.704400
C 69.613604 43.725235 71.888839
C 69.253686 42.414137 72.397835
C 70.613821 42.340819 72.796516
C 70.908416 43.143703 71.589597
C 72.084444 43.985324 71.623938
C 72.311339 45.440884 71.674572
C 71.279968 46.484255 71.626104
C 69.812622 46.307678 71.552741
C 88.294593 45.072369 71.704400
C 88.862710 43.725235 71.888839
C 88.502792 42.414137 72.397835
C 89.862927 42.340819 72.796516
C 90.157523 43.143703 71.589597
C 91.333550 43.985324 71.623938
C 91.560446 45.440884 71.674572
C 90.529074 46.484255 71.626104
C 89.061729 46.307678 71.552741
C 93.106869 53.407232 71.704400
C 93.674987 52.060098 71.888839
C 93.315069 50.749000 72.397835
C 94.675204 50.675682 72.796516
C 94.969799 51.478566 71.589597
C 96.145827 52.320187 71.623938
C 96.372722 53.775747 71.674572
C 95.341351 54.819118 71.626104
C 93.874005 54.642541 71.552741
C 59.437719 28.411707 71.586180
C 59.980355 27.073725 71.844196
C 59.440813 25.450483 72.452618
C 61.096362 25.840826 73.001751
C 61.291611 26.475501 71.696037
C 62.445086 27.326511 71.505824
C 62.696442 28.778761 71.621587
C 61.671115 29.820690 71.673730
C 60.199127 29.657072 71.577469
C 62.279059 45.786641 71.586180
C 60.849018 45.985714 71.844196
C 59.713036 47.264606 72.452618
C 59.223288 45.635693 73.001751
C 59.675301 45.149260 71.696037
C 59.835543 43.724813 71.505824
C 60.967537 42.780993 71.621587
C 62.382542 43.147970 71.673730
C 62.976856 44.504551 71.577469
C 78.686826 28.411707 71.586180
C 79.229461 27.073725 71.844196
C 78.689920 25.450483 72.452618
C 80.345468 25.840826 73.001751
C 80.540717 26.475501 71.696037
C 81.694193 27.326511 71.505824
C 81.945549 28.778761 71.621587
C 80.920222 29.820690 71.673730
C 79.448233 29.657072 71.577469
C 83.906248 51.775872 71.586180
C 85.336290 51.576799 71.844196
C 86.472272 50.297907 72.452618
C 86.962019 51.926819 73.001751
C 86.510006 52.413253 71.696037
C 86.349765 53.837699 71.505824
C 85.217770 54.781519 71.621587
C 83.802765 54.414542 71.673730
C 83.208451 53.057961 71.577469
C 64.258839 36.746962 71.600478
C 64.782148 35.419379 71.814537
C 64.310375 33.734128 72.295965
C 65.855964 34.211533 72.943098
C 66.094826 34.812522 71.714264
C 67.254647 35.655546 71.543634
C 67.503985 37.109534 71.620135
C 66.487048 38.159047 71.706001
C 65.018429 37.998161 71.602026
C 64.661224 51.783726 71.600478
C 66.072596 51.573116 71.814537
C 67.296164 50.321907 72.295965
C 67.655534 51.899124 72.943098
C 67.254499 52.406485 71.714264
C 67.104348 53.832433 71.543634
C 65.969839 54.775375 71.620135
C 64.552460 54.419455 71.706001
C 63.957465 53.067159 71.602026
C 73.883392 53.416688 71.600478
C 74.406702 52.089106 71.814537
C 73.934928 50.403854 72.295965
C 75.480517 50.881259 72.943098
C 75.719379 51.482249 71.714264
C 76.879201 52.325272 71.543634
C 77.128538 53.779260 71.620135
C 76.111601 54.828773 71.706001
C 74.642982 54.667887 71.602026
C 71.899530 29.109060 71.600478
C 70.488158 29.319670 71.814537
C 69.264590 30.570879 72.295965
C 68.905221 28.993662 72.943098
C 69.306255 28.486302 71.714264
C 69.456406 27.060353 71.543634
C 70.590915 26.117412 71.620135
C 72.008294 26.473331 71.706001
C 72.603289 27.825628 71.602026
C 74.285777 35.114000 71.600478
C 75.697150 34.903390 71.814537
C 76.920718 33.652181 72.295965
C 77.280087 35.229398 72.943098
C 76.879052 35.736758 71.714264
C 76.728902 37.162707 71.543634
C 75.594392 38.105648 71.620135
C 74.177014 37.749729 71.706001
C 73.582018 36.397433 71.602026
C 83.507945 36.746962 71.600478
C 84.031255 35.419379 71.814537
C 83.559482 33.734128 72.295965
C 85.105070 34.211533 72.943098
C 85.343932 34.812522 71.714264
C 86.503754 35.655546 71.543634
C 86.753092 37.109534 71.620135
C 85.736154 38.159047 71.706001
C 84.267535 37.998161 71.602026
C 81.524083 45.778786 71.600478
C 80.112711 45.989396 71.814537
C 78.889143 47.240605 72.295965
C 78.529774 45.663389 72.943098
C 78.930808 45.156028 71.714264
C 79.080959 43.730079 71.543634
C 80.215469 42.787138 71.620135
C 81.632847 43.143057 71.706001
C 82.227843 44.495354 71.602026
