128

C 47.575116 27.951623 59.825589
C 47.649307 26.475185 59.586520
C 48.112803 25.684490 60.639633
C 47.077682 25.109547 60.828867
C 46.388888 25.767172 59.825589
C 45.283205 26.675506 60.294752
C 44.338626 26.235442 61.189305
C 45.160579 28.057232 59.825589
C 46.398689 28.695374 59.385000
C 48.103772 26.219276 58.598095
C 52.004282 29.538881 59.825589
C 51.930091 31.015319 59.586520
C 51.466595 31.806014 60.639633
C 52.501716 32.380958 60.828867
C 53.190510 31.723333 59.825589
C 54.296193 30.814998 60.294752
C 55.240772 31.255063 61.189305
C 54.418819 29.433272 59.825589
C 53.180709 28.795130 59.385000
C 51.475626 31.271228 58.598095
C 54.083648 39.224400 59.825589
C 54.157838 37.747962 59.586520
C 54.621335 36.957267 60.639633
C 53.586213 36.382324 60.828867
C 52.897420 37.039948 59.825589
C 51.791736 37.948283 60.294752
C 50.847158 37.508219 61.189305
C 51.669110 39.330009 59.825589
C 52.907220 39.968151 59.385000
C 54.612303 37.492053 58.598095
C 58.512813 40.811658 59.825589
C 58.438623 42.288096 59.586520
C 57.975126 43.078791 60.639633
C 59.010248 43.653734 60.828867
C 59.699042 42.996109 59.825589
C 60.804725 42.087775 60.294752
C 61.749303 42.527839 61.189305
C 60.927351 40.706049 59.825589
C 59.689241 40.067907 59.385000
C 57.984158 42.544005 58.598095
C 60.592179 27.951623 59.825589
C 60.666370 26.475185 59.586520
C 61.129866 25.684490 60.639633
C 60.094745 25.109547 60.828867
C 59.405951 25.767172 59.825589
C 58.300268 26.675506 60.294752
C 57.355689 26.235442 61.189305
C 58.177642 28.057232 59.825589
C 59.415752 28.695374 59.385000
C 61.120835 26.219276 58.598095
C 65.021345 29.538881 59.825589
C 64.947154 31.015319 59.586520
C 64.483658 31.806014 60.639633
C 65.518779 32.380958 60.828867
C 66.207573 31.723333 59.825589
C 67.313257 30.814998 60.294752
C 68.257835 31.255063 61.189305
C 67.435883 29.433272 59.825589
C 66.197772 28.795130 59.385000
C 64.492690 31.271228 58.598095
C 67.100711 39.224400 59.825589
C 67.174902 37.747962 59.586520
C 67.638398 36.957267 60.639633
C 66.603277 36.382324 60.828867
C 65.914483 37.039948 59.825589
C 64.808800 37.948283 60.294752
C 63.864221 37.508219 61.189305
C 64.686174 39.330009 59.825589
C 65.924284 39.968151 59.385000
C 67.629367 37.492053 58.598095
C 71.529877 40.811658 59.825589
C 71.455686 42.288096 59.586520
C 70.992190 43.078791 60.639633
C 72.027311 43.653734 60.828867
C 72.716105 42.996109 59.825589
C 73.821788 42.087775 60.294752
C 74.766367 42.527839 61.189305
C 73.944414 40.706049 59.825589
C 72.706304 40.067907 59.385000
C 71.001221 42.544005 58.598095
C 49.484061 28.006448 59.945196
C 50.622734 28.663841 59.945196
C 49.828448 29.850785 59.945199
C 48.741170 29.210142 59.945189
C 46.048421 23.742950 59.945195
C 46.048421 22.428134 59.945195
C 47.473485 22.522552 59.945201
C 47.462295 23.784483 59.945192
C 44.073807 28.849984 59.945195
C 42.935134 29.507378 59.945195
C 42.304386 28.226019 59.945201
C 43.402854 27.604758 59.945191
C 55.992593 39.279225 59.945196
C 57.131265 39.936618 59.945196
C 56.336980 41.123562 59.945199
C 55.249702 40.482918 59.945189
C 52.556952 35.015726 59.945195
C 52.556952 33.700910 59.945195
C 53.982017 33.795328 59.945201
C 53.970826 35.057260 59.945192
C 50.582338 40.122761 59.945195
C 49.443666 40.780155 59.945195
C 48.812918 39.498796 59.945201
C 49.911386 38.877535 59.945191
C 62.501125 28.006448 59.945196
C 63.639797 28.663841 59.945196
C 62.845511 29.850785 59.945199
C 61.758234 29.210142 59.945189
C 59.065484 23.742950 59.945195
C 59.065484 22.428134 59.945195
C 60.490549 22.522552 59.945201
C 60.479358 23.784483 59.945192
C 57.090870 28.849984 59.945195
C 55.952198 29.507378 59.945195
C 55.321450 28.226019 59.945201
C 56.419918 27.604758 59.945191
C 69.009656 39.279225 59.945196
C 70.148329 39.936618 59.945196
C 69.354043 41.123562 59.945199
C 68.266765 40.482918 59.945189
C 65.574016 35.015726 59.945195
C 65.574016 33.700910 59.945195
C 66.999080 33.795328 59.945201
C 66.987890 35.057260 59.945192
C 63.599402 40.122761 59.945195
C 62.460729 40.780155 59.945195
C 61.829981 39.498796 59.945201
C 62.928449 38.877535 59.945191
