366

C 24.513947 20.944418 71.712529
C 25.171361 22.083059 71.712529
C 26.358309 21.288770 71.712572
C 25.717681 20.201495 71.712547
C 30.395918 10.756869 71.712529
C 31.710718 10.756869 71.712529
C 31.616335 9.331797 71.712572
C 30.354413 9.342943 71.712547
C 36.935274 22.083059 71.712529
C 37.592688 20.944418 71.712529
C 36.311356 20.313603 71.712572
C 35.690034 21.412025 71.712547
C 42.817245 32.270608 71.712529
C 44.132045 32.270608 71.712529
C 44.037662 30.845535 71.712572
C 42.775740 30.856682 71.712547
C 49.356601 20.944418 71.712529
C 50.014016 22.083059 71.712529
C 51.200963 21.288770 71.712572
C 50.560335 20.201495 71.712547
C 6.868063 10.756869 71.712529
C 5.553264 10.756869 71.712529
C 4.137457 9.464862 71.712557
C 5.647646 12.181942 71.712572
C 6.909568 12.170795 71.712547
C 49.356601 63.971895 71.712529
C 50.014016 65.110536 71.712529
C 51.200963 64.316247 71.712572
C 50.560335 63.228972 71.712547
C 55.238572 53.784346 71.712529
C 56.553372 53.784346 71.712529
C 56.458989 52.359274 71.712572
C 55.197067 52.370420 71.712547
C 67.659899 75.298085 71.712529
C 68.974699 75.298085 71.712529
C 68.880317 73.873012 71.712572
C 67.618394 73.884159 71.712547
C 74.199256 63.971895 71.712529
C 74.856670 65.110536 71.712529
C 76.043618 64.316247 71.712572
C 75.402989 63.228972 71.712547
C 44.132045 75.298085 71.712529
C 42.817245 75.298085 71.712529
C 41.401439 74.006077 71.712557
C 42.911627 76.723158 71.712572
C 44.173550 76.712011 71.712547
C 74.199256 20.944418 71.712529
C 74.856670 22.083059 71.712529
C 76.043618 21.288770 71.712572
C 75.402989 20.201495 71.712547
C 86.620583 22.083059 71.712529
C 87.277997 20.944418 71.712529
C 85.996665 20.313603 71.712572
C 85.375343 21.412025 71.712547
C 99.041910 20.944418 71.712529
C 99.699324 22.083059 71.712529
C 100.886272 21.288770 71.712572
C 100.245644 20.201495 71.712547
C 56.553372 10.756869 71.712529
C 55.238572 10.756869 71.712529
C 55.332955 12.181942 71.712572
C 56.594877 12.170795 71.712547
C 62.435343 0.569321 71.712529
C 61.777928 -0.569321 71.712529
C 62.188913 -2.441454 71.712557
C 60.590981 0.224968 71.712572
C 61.231609 1.312243 71.712547
C 74.199256 0.569321 71.712529
C 74.856670 -0.569321 71.712529
C 76.683492 -1.149418 71.712557
C 73.575337 -1.200136 71.712572
C 72.954016 -0.101714 71.712547
C 68.974699 32.270608 71.712529
C 67.659899 32.270608 71.712529
C 67.754282 33.695681 71.712572
C 69.016204 33.684534 71.712547
C 111.463237 22.083059 71.712529
C 112.120651 20.944418 71.712529
C 113.947473 20.364320 71.712557
C 110.839319 20.313603 71.712572
C 110.217997 21.412025 71.712547
C 99.041910 63.971895 71.712529
C 99.699324 65.110536 71.712529
C 100.886272 64.316247 71.712572
C 100.245644 63.228972 71.712547
C 104.923881 53.784346 71.712529
C 106.238680 53.784346 71.712529
C 106.144298 52.359274 71.712572
C 104.882376 52.370420 71.712547
C 123.884564 43.596798 71.712529
C 124.541978 42.458156 71.712529
C 126.368800 41.878059 71.712557
C 123.260646 41.827341 71.712572
C 122.639324 42.925764 71.712547
C 112.120651 43.596798 71.712529
C 111.463237 42.458156 71.712529
C 110.276289 43.252445 71.712572
C 110.916917 44.339721 71.712547
C 12.768191 0.600769 71.712529
C 12.074463 -0.600769 71.712529
C 10.237775 -1.089804 71.712543
C 13.308198 -1.238910 71.712540
C 13.921914 -0.146625 71.712542
C 24.495790 0.600769 71.712529
C 25.189518 -0.600769 71.712529
C 24.694738 -2.435918 71.712537
C 26.359014 0.148636 71.712546
C 25.719898 1.226256 71.712548
C 49.338444 0.600769 71.712529
C 50.032172 -0.600769 71.712529
C 49.537392 -2.435918 71.712537
C 51.201668 0.148636 71.712546
C 50.562552 1.226256 71.712548
C 37.610845 0.600769 71.712529
C 36.917117 -0.600769 71.712529
C 35.080429 -1.089804 71.712543
C 38.150852 -1.238910 71.712540
C 38.764568 -0.146625 71.712542
C 19.325703 32.270608 71.712529
C 17.938278 32.270608 71.712529
C 16.596399 33.616692 71.712545
C 18.002516 30.883092 71.712537
C 19.255320 30.897757 71.712539
C 61.759772 22.114507 71.712529
C 62.453500 20.912970 71.712529
C 63.622995 21.662375 71.712546
C 62.983879 22.739994 71.712548
C 61.759772 65.141984 71.712529
C 62.453500 63.940447 71.712529
C 63.622995 64.689852 71.712546
C 62.983879 65.767471 71.712548
C 31.747031 53.784346 71.712529
C 30.359605 53.784346 71.712529
C 29.017726 55.130430 71.712545
C 30.423843 52.396831 71.712537
C 31.676647 52.411496 71.712539
C 37.610845 43.628246 71.712529
C 36.917117 42.426709 71.712529
C 38.150852 41.788567 71.712540
C 38.764568 42.880852 71.712542
C 49.338444 43.628246 71.712529
C 50.032172 42.426709 71.712529
C 51.201668 43.176113 71.712546
C 50.562552 44.253733 71.712548
C 74.181099 43.628246 71.712529
C 74.874827 42.426709 71.712529
C 76.044322 43.176113 71.712546
C 75.405206 44.253733 71.712548
C 62.453500 43.628246 71.712529
C 61.759772 42.426709 71.712529
C 62.993506 41.788567 71.712540
C 63.607222 42.880852 71.712542
C 80.044913 10.756869 71.712529
C 81.432339 10.756869 71.712529
C 81.368101 12.144385 71.712495
C 80.115297 12.129720 71.712498
C 92.466241 32.270608 71.712529
C 93.853666 32.270608 71.712529
C 93.789428 33.658124 71.712495
C 92.536624 33.643459 71.712498
C 99.023753 0.600769 71.712529
C 99.717481 -0.600769 71.712529
C 99.222701 -2.435918 71.712537
C 100.886976 0.148636 71.712546
C 100.247860 1.226256 71.712548
C 87.296154 0.600769 71.712529
C 86.602426 -0.600769 71.712529
C 84.765737 -1.089804 71.712543
C 87.836161 -1.238910 71.712540
C 88.449876 -0.146625 71.712542
C 111.445080 65.141984 71.712529
C 112.138808 63.940447 71.712529
C 113.308303 64.689852 71.712546
C 112.669187 65.767471 71.712548
C 117.308895 75.298085 71.712529
C 118.696320 75.298085 71.712529
C 118.632082 76.685601 71.712495
C 117.379278 76.670936 71.712498
C 123.866407 63.940447 71.712529
C 124.560135 65.141984 71.712529
C 123.326400 65.780126 71.712531
C 122.712685 64.687841 71.712533
C 81.432339 53.784346 71.712529
C 80.044913 53.784346 71.712529
C 80.109151 52.396831 71.712537
C 81.361956 52.411496 71.712539
C 87.296154 43.628246 71.712529
C 86.602426 42.426709 71.712529
C 87.836161 41.788567 71.712540
C 88.449876 42.880852 71.712542
C 99.023753 43.628246 71.712529
C 99.717481 42.426709 71.712529
C 100.886976 43.176113 71.712546
C 100.247860 44.253733 71.712548
C 86.602426 65.141984 71.712529
C 87.296154 63.940447 71.712529
C 88.465649 64.689852 71.712546
C 87.826533 65.767471 71.712548
C 93.853666 75.298085 71.712529
C 92.466241 75.298085 71.712529
C 92.530479 73.910569 71.712537
C 93.783283 73.925234 71.712539
C 136.287734 65.141984 71.712529
C 136.981462 63.940447 71.712529
C 136.486682 62.105298 71.712537
C 138.150958 64.689852 71.712546
C 137.511842 65.767471 71.712548
C 16.846169 14.078339 71.747493
C 17.701190 12.369016 71.788371
C 16.818611 11.203433 71.972809
C 15.503213 10.859565 72.481805
C 16.119800 9.645003 72.880487
C 16.962414 9.791328 71.673567
C 18.279301 9.193686 71.707908
C 19.653294 9.724986 71.758542
C 20.041176 11.139871 71.710074
C 19.154568 12.322329 71.636711
C 30.122517 30.658462 71.788371
C 31.573227 30.476880 71.972809
C 32.528699 29.509621 72.481805
C 33.272277 30.650864 72.880487
C 32.724264 31.307440 71.673567
C 32.583431 32.746723 71.707908
C 31.436339 33.671014 71.758542
C 30.017062 33.299524 71.710074
C 28.733418 34.719551 71.744107
C 29.436293 31.940484 71.636711
C 66.455739 53.784346 71.788371
C 67.023857 52.437212 71.972809
C 66.663939 51.126114 72.481805
C 68.024074 51.052796 72.880487
C 68.318669 51.855681 71.673567
C 69.494697 52.697302 71.707908
C 69.721592 54.152862 71.758542
C 68.690221 55.196233 71.710074
C 67.222876 55.019656 71.636711
C 116.141048 53.784346 71.788371
C 116.709166 52.437212 71.972809
C 116.349248 51.126114 72.481805
C 117.709383 51.052796 72.880487
C 118.003978 51.855681 71.673567
C 119.180006 52.697302 71.707908
C 119.406901 54.152862 71.758542
C 121.392841 54.833725 71.915680
C 118.375529 55.196233 71.710074
C 116.908184 55.019656 71.636711
C 128.562375 75.298085 71.788371
C 129.130493 73.950951 71.972809
C 128.770575 72.639853 72.481805
C 130.130710 72.566535 72.880487
C 130.425305 73.369419 71.673567
C 131.601333 74.211040 71.707908
C 131.828228 75.666600 71.758542
C 133.814168 76.347464 71.915680
C 130.796856 76.709971 71.710074
C 131.384790 78.531661 71.744107
C 129.329511 76.533394 71.636711
C 128.309227 78.092188 71.306154
C 41.622181 10.756869 71.688571
C 42.164816 9.418887 71.946587
C 41.625275 7.795645 72.555009
C 43.280823 8.185989 73.104142
C 43.476072 8.820663 71.798428
C 44.629548 9.671674 71.608215
C 44.880904 11.123923 71.723978
C 43.855577 12.165852 71.776121
C 42.383588 12.002234 71.679860
C 44.400897 55.388616 71.688571
C 42.970856 55.587689 71.946587
C 41.834874 56.866581 72.555009
C 41.345126 55.237668 73.104142
C 41.797140 54.751235 71.798428
C 40.586957 55.483966 70.448408
C 41.957381 53.326788 71.608215
C 43.089376 52.382968 71.723978
C 44.504381 52.749945 71.776121
C 45.098695 54.106526 71.679860
C 91.307489 10.756869 71.688571
C 91.850125 9.418887 71.946587
C 91.310583 7.795645 72.555009
C 92.966132 8.185989 73.104142
C 93.161381 8.820663 71.798428
C 94.314856 9.671674 71.608215
C 94.566212 11.123923 71.723978
C 96.563891 11.769481 71.823845
C 93.540885 12.165852 71.776121
C 92.068897 12.002234 71.679860
C 104.655028 73.693816 71.688571
C 106.085069 73.494743 71.946587
C 107.221051 72.215851 72.555009
C 107.710799 73.844763 73.104142
C 107.258786 74.331196 71.798428
C 107.098544 75.755643 71.608215
C 105.966550 76.699463 71.723978
C 106.406346 78.752277 71.823845
C 104.551545 76.332486 71.776121
C 103.298300 77.763443 71.994868
C 103.957231 74.975905 71.679860
C 54.051849 32.270608 71.681917
C 54.575158 30.943025 71.895976
C 54.103385 29.257774 72.377404
C 55.648973 29.735179 73.024537
C 55.887835 30.336168 71.795703
C 57.047657 31.179192 71.625073
C 57.296995 32.633179 71.701575
C 56.280057 33.682693 71.787440
C 54.811438 33.521807 71.683465
C 54.973890 73.701039 71.681917
C 56.385262 73.490429 71.895976
C 57.608831 72.239220 72.377404
C 57.968200 73.816437 73.024537
C 57.567165 74.323797 71.795703
C 57.417015 75.749746 71.625073
C 56.282505 76.692687 71.701575
C 56.698786 78.745055 71.688526
C 54.865126 76.336768 71.787440
C 53.605287 77.749519 72.065064
C 54.270131 74.984472 71.683465
C 78.894503 75.298085 71.681917
C 79.417812 73.970502 71.895976
C 78.946039 72.285251 72.377404
C 80.491627 72.762656 73.024537
C 80.730490 73.363645 71.795703
C 81.890311 74.206669 71.625073
C 82.139649 75.660657 71.701575
C 81.122712 76.710170 71.787440
C 81.716247 78.507606 72.065064
C 79.654093 76.549284 71.683465
C 78.605872 78.134241 71.533258
C 69.239381 12.353915 71.681917
C 67.828009 12.564525 71.895976
C 66.604441 13.815734 72.377404
C 66.245072 12.238517 73.024537
C 66.646106 11.731157 71.795703
C 66.796257 10.305208 71.625073
C 67.930766 9.362267 71.701575
C 69.348145 9.718186 71.787440
C 69.943140 11.070483 71.683465
C 79.816544 30.673562 71.681917
C 81.227917 30.462952 71.895976
C 82.451485 29.211743 72.377404
C 82.810854 30.788960 73.024537
C 82.409819 31.296320 71.795703
C 82.259669 32.722269 71.625073
C 81.125159 33.665210 71.701575
C 79.707781 33.309291 71.787440
C 79.112785 31.956995 71.683465
C 103.737157 32.270608 71.681917
C 104.260467 30.943025 71.895976
C 103.788693 29.257774 72.377404
C 105.334282 29.735179 73.024537
C 105.573144 30.336168 71.795703
C 106.732966 31.179192 71.625073
C 106.982303 32.633179 71.701575
C 108.967838 33.298878 71.688526
C 105.965366 33.682693 71.787440
C 104.496747 33.521807 71.683465
C 94.082035 55.381392 71.681917
C 92.670663 55.592002 71.895976
C 91.447095 56.843211 72.377404
C 91.087726 55.265994 73.024537
C 91.488760 54.758634 71.795703
C 91.638911 53.332685 71.625073
C 92.773420 52.389744 71.701575
C 94.190799 52.745663 71.787440
C 94.785794 54.097960 71.683465
