128

C 21.940574 12.667024 59.870442
C 22.014764 11.190587 59.631373
C 22.478261 10.399892 60.684485
C 21.443139 9.824948 60.873719
C 20.754345 10.482573 59.870442
C 19.648662 11.390908 60.339605
C 18.704084 10.950843 61.234157
C 19.526036 12.772634 59.870442
C 20.764146 13.410776 59.429852
C 22.469229 10.934678 58.642948
C 40.280382 23.255207 59.870442
C 40.206191 24.731644 59.631373
C 39.742694 25.522339 60.684485
C 40.777816 26.097283 60.873719
C 41.466610 25.439658 59.870442
C 42.572293 24.531324 60.339605
C 43.516871 24.971388 61.234157
C 42.694919 23.149598 59.870442
C 41.456809 22.511456 59.429852
C 39.751726 24.987554 58.642948
C 42.680892 48.589256 59.870442
C 42.755082 47.112818 59.631373
C 43.218579 46.322123 60.684485
C 42.183458 45.747180 60.873719
C 41.494664 46.404805 59.870442
C 40.388980 47.313139 60.339605
C 39.444402 46.873075 61.234157
C 40.266354 48.694865 59.870442
C 41.504465 49.333007 59.429852
C 43.209547 46.856909 58.642948
C 61.020700 59.177438 59.870442
C 60.946509 60.653876 59.631373
C 60.483013 61.444571 60.684485
C 61.518134 62.019514 60.873719
C 62.206928 61.361890 59.870442
C 63.312611 60.453555 60.339605
C 64.257190 60.893619 61.234157
C 63.435237 59.071829 59.870442
C 62.197127 58.433687 59.429852
C 60.492044 60.909785 58.642948
C 63.421210 12.667024 59.870442
C 63.495401 11.190587 59.631373
C 63.958897 10.399892 60.684485
C 62.923776 9.824948 60.873719
C 62.234982 10.482573 59.870442
C 61.129299 11.390908 60.339605
C 60.184720 10.950843 61.234157
C 61.006673 12.772634 59.870442
C 62.244783 13.410776 59.429852
C 63.949866 10.934678 58.642948
C 81.761018 23.255207 59.870442
C 81.686828 24.731644 59.631373
C 81.223331 25.522339 60.684485
C 82.258453 26.097283 60.873719
C 82.947246 25.439658 59.870442
C 84.052930 24.531324 60.339605
C 84.997508 24.971388 61.234157
C 84.175556 23.149598 59.870442
C 82.937445 22.511456 59.429852
C 81.232363 24.987554 58.642948
C 84.161529 48.589256 59.870442
C 84.235719 47.112818 59.631373
C 84.699216 46.322123 60.684485
C 83.664094 45.747180 60.873719
C 82.975300 46.404805 59.870442
C 81.869617 47.313139 60.339605
C 80.925039 46.873075 61.234157
C 81.746991 48.694865 59.870442
C 82.985101 49.333007 59.429852
C 84.690184 46.856909 58.642948
C 102.501337 59.177438 59.870442
C 102.427146 60.653876 59.631373
C 101.963649 61.444571 60.684485
C 102.998771 62.019514 60.873719
C 103.687565 61.361890 59.870442
C 104.793248 60.453555 60.339605
C 105.737826 60.893619 61.234157
C 104.915874 59.071829 59.870442
C 103.677764 58.433687 59.429852
C 101.972681 60.909785 58.642948
C 30.541141 17.632419 59.870442
C 31.679814 18.289812 59.870442
C 30.885528 19.476756 59.870445
C 29.798250 18.836113 59.870435
C 20.740318 0.657408 59.870442
C 20.740318 -0.657408 59.870442
C 22.165383 -0.562990 59.870448
C 22.154193 0.698941 59.870438
C 10.939495 17.632419 59.870442
C 9.800823 18.289812 59.870442
C 9.170075 17.008453 59.870447
C 10.268543 16.387193 59.870437
C 51.281460 53.554650 59.870442
C 52.420132 54.212044 59.870442
C 51.625846 55.398987 59.870445
C 50.538569 54.758344 59.870435
C 41.480637 36.579639 59.870442
C 41.480637 35.264823 59.870442
C 42.905701 35.359241 59.870448
C 42.894511 36.621173 59.870438
C 31.679814 53.554650 59.870442
C 30.541141 54.212044 59.870442
C 29.910394 52.930685 59.870447
C 31.008862 52.309424 59.870437
C 72.021778 17.632419 59.870442
C 73.160450 18.289812 59.870442
C 72.366165 19.476756 59.870445
C 71.278887 18.836113 59.870435
C 62.220955 0.657408 59.870442
C 62.220955 -0.657408 59.870442
C 63.646020 -0.562990 59.870448
C 63.634829 0.698941 59.870438
C 52.420132 17.632419 59.870442
C 51.281460 18.289812 59.870442
C 50.650712 17.008453 59.870447
C 51.749180 16.387193 59.870437
C 92.762096 53.554650 59.870442
C 93.900769 54.212044 59.870442
C 93.106483 55.398987 59.870445
C 92.019206 54.758344 59.870435
C 82.961273 36.579639 59.870442
C 82.961273 35.264823 59.870442
C 84.386338 35.359241 59.870448
C 84.375148 36.621173 59.870438
C 73.160450 53.554650 59.870442
C 72.021778 54.212044 59.870442
C 71.391030 52.930685 59.870447
C 72.489498 52.309424 59.870437
