128

C 47.575113 27.951623 59.825593
C 47.649304 26.475185 59.586524
C 48.112800 25.684490 60.639637
C 47.077679 25.109547 60.828871
C 46.388885 25.767172 59.825593
C 45.283202 26.675506 60.294756
C 44.338623 26.235442 61.189309
C 45.160576 28.057232 59.825593
C 46.398686 28.695374 59.385004
C 48.103769 26.219276 58.598099
C 52.004279 29.538881 59.825593
C 51.930088 31.015319 59.586524
C 51.466592 31.806014 60.639637
C 52.501713 32.380958 60.828871
C 53.190507 31.723333 59.825593
C 54.296191 30.814998 60.294756
C 55.240769 31.255063 61.189309
C 54.418816 29.433272 59.825593
C 53.180706 28.795130 59.385004
C 51.475624 31.271228 58.598099
C 54.083645 39.224400 59.825593
C 54.157836 37.747962 59.586524
C 54.621332 36.957267 60.639637
C 53.586211 36.382324 60.828871
C 52.897417 37.039948 59.825593
C 51.791734 37.948283 60.294756
C 50.847155 37.508219 61.189309
C 51.669108 39.330009 59.825593
C 52.907218 39.968151 59.385004
C 54.612301 37.492053 58.598099
C 58.512811 40.811658 59.825593
C 58.438620 42.288096 59.586524
C 57.975124 43.078791 60.639637
C 59.010245 43.653734 60.828871
C 59.699039 42.996109 59.825593
C 60.804722 42.087775 60.294756
C 61.749301 42.527839 61.189309
C 60.927348 40.706049 59.825593
C 59.689238 40.067907 59.385004
C 57.984155 42.544005 58.598099
C 60.592177 27.951623 59.825593
C 60.666367 26.475185 59.586524
C 61.129864 25.684490 60.639637
C 60.094742 25.109547 60.828871
C 59.405949 25.767172 59.825593
C 58.300265 26.675506 60.294756
C 57.355687 26.235442 61.189309
C 58.177639 28.057232 59.825593
C 59.415749 28.695374 59.385004
C 61.120832 26.219276 58.598099
C 65.021342 29.538881 59.825593
C 64.947152 31.015319 59.586524
C 64.483655 31.806014 60.639637
C 65.518777 32.380958 60.828871
C 66.207571 31.723333 59.825593
C 67.313254 30.814998 60.294756
C 68.257832 31.255063 61.189309
C 67.435880 29.433272 59.825593
C 66.197770 28.795130 59.385004
C 64.492687 31.271228 58.598099
C 67.100708 39.224400 59.825593
C 67.174899 37.747962 59.586524
C 67.638395 36.957267 60.639637
C 66.603274 36.382324 60.828871
C 65.914480 37.039948 59.825593
C 64.808797 37.948283 60.294756
C 63.864218 37.508219 61.189309
C 64.686171 39.330009 59.825593
C 65.924281 39.968151 59.385004
C 67.629364 37.492053 58.598099
C 71.529874 40.811658 59.825593
C 71.455683 42.288096 59.586524
C 70.992187 43.078791 60.639637
C 72.027308 43.653734 60.828871
C 72.716102 42.996109 59.825593
C 73.821786 42.087775 60.294756
C 74.766364 42.527839 61.189309
C 73.944411 40.706049 59.825593
C 72.706301 40.067907 59.385004
C 71.001219 42.544005 58.598099
C 48.997049 28.849992 59.945189
C 50.135708 29.507377 59.945189
C 50.766490 28.226029 59.945232
C 49.668052 27.604735 59.945207
C 47.022453 23.742952 59.945189
C 47.022453 22.428153 59.945189
C 45.597380 22.522535 59.945232
C 45.608527 23.784457 59.945207
C 43.586800 28.006438 59.945189
C 42.448141 28.663823 59.945189
C 43.242400 29.850791 59.945232
C 44.329692 29.210190 59.945207
C 55.505581 40.122769 59.945189
C 56.644239 40.780154 59.945189
C 57.275022 39.498806 59.945232
C 56.176584 38.877512 59.945207
C 53.530985 35.015729 59.945189
C 53.530985 33.700930 59.945189
C 52.105912 33.795312 59.945232
C 52.117059 35.057234 59.945207
C 50.095331 39.279214 59.945189
C 48.956673 39.936600 59.945189
C 49.750932 41.123568 59.945232
C 50.838223 40.482967 59.945207
C 62.014113 28.849992 59.945189
C 63.152771 29.507377 59.945189
C 63.783553 28.226029 59.945232
C 62.685115 27.604735 59.945207
C 60.039516 23.742952 59.945189
C 60.039516 22.428153 59.945189
C 58.614444 22.522535 59.945232
C 58.625591 23.784457 59.945207
C 56.603863 28.006438 59.945189
C 55.465205 28.663823 59.945189
C 56.259463 29.850791 59.945232
C 57.346755 29.210190 59.945207
C 68.522644 40.122769 59.945189
C 69.661303 40.780154 59.945189
C 70.292085 39.498806 59.945232
C 69.193647 38.877512 59.945207
C 66.548048 35.015729 59.945189
C 66.548048 33.700930 59.945189
C 65.122975 33.795312 59.945232
C 65.134122 35.057234 59.945207
C 63.112395 39.279214 59.945189
C 61.973736 39.936600 59.945189
C 62.767995 41.123568 59.945232
C 63.855287 40.482967 59.945207
