192

C 51.885196 36.616403 60.156206
C 51.092962 35.388245 59.777285
C 51.226589 34.202671 60.493591
C 50.131634 34.238520 61.068411
C 49.784666 35.437120 60.469286
C 48.961706 36.635019 60.157121
C 49.767220 37.825944 59.771439
C 51.191914 37.870214 60.009441
C 57.123656 35.894005 60.156206
C 57.915891 37.122162 59.777285
C 57.782263 38.307737 60.493591
C 58.877218 38.271888 61.068411
C 59.224186 37.073288 60.469286
C 60.047146 35.875389 60.157121
C 59.241632 34.684464 59.771439
C 57.816938 34.640193 60.009441
C 53.486426 30.316750 60.156206
C 54.946160 30.244752 59.777285
C 55.906075 30.953277 60.493591
C 56.422518 29.987100 61.068411
C 55.557996 29.087305 60.469286
C 54.932081 27.775644 60.157121
C 53.497951 27.877759 59.771439
C 52.747250 29.089435 60.009441
C 59.944374 50.574899 60.156206
C 59.152140 49.346742 59.777285
C 59.285768 48.161167 60.493591
C 58.190812 48.197016 61.068411
C 57.843844 49.395616 60.469286
C 57.020884 50.593515 60.157121
C 57.826398 51.784440 59.771439
C 59.251093 51.828710 60.009441
C 65.182834 49.852501 60.156206
C 65.975069 51.080659 59.777285
C 65.841441 52.266233 60.493591
C 66.936396 52.230384 61.068411
C 67.283365 51.031784 60.469286
C 68.106324 49.833885 60.157121
C 67.300810 48.642960 59.771439
C 65.876116 48.598690 60.009441
C 61.545604 44.275246 60.156206
C 63.005338 44.203248 59.777285
C 63.965253 44.911773 60.493591
C 64.481696 43.945596 61.068411
C 63.617174 43.045801 60.469286
C 62.991259 41.734140 60.157121
C 61.557130 41.836255 59.771439
C 60.806428 43.047932 60.009441
C 68.003552 36.616403 60.156206
C 67.211318 35.388245 59.777285
C 67.344946 34.202671 60.493591
C 66.249990 34.238520 61.068411
C 65.903022 35.437120 60.469286
C 65.080062 36.635019 60.157121
C 65.885577 37.825944 59.771439
C 67.310271 37.870214 60.009441
C 73.242012 35.894005 60.156206
C 74.034247 37.122162 59.777285
C 73.900619 38.307737 60.493591
C 74.995574 38.271888 61.068411
C 75.342543 37.073288 60.469286
C 76.165502 35.875389 60.157121
C 75.359988 34.684464 59.771439
C 73.935294 34.640193 60.009441
C 69.604782 30.316750 60.156206
C 71.064516 30.244752 59.777285
C 72.024431 30.953277 60.493591
C 72.540874 29.987100 61.068411
C 71.676352 29.087305 60.469286
C 71.050438 27.775644 60.157121
C 69.616308 27.877759 59.771439
C 68.865606 29.089435 60.009441
C 76.062730 50.574899 60.156206
C 75.270496 49.346742 59.777285
C 75.404124 48.161167 60.493591
C 74.309169 48.197016 61.068411
C 73.962200 49.395616 60.469286
C 73.139240 50.593515 60.157121
C 73.944755 51.784440 59.771439
C 75.369449 51.828710 60.009441
C 81.301190 49.852501 60.156206
C 82.093425 51.080659 59.777285
C 81.959797 52.266233 60.493591
C 83.054752 52.230384 61.068411
C 83.401721 51.031784 60.469286
C 84.224680 49.833885 60.157121
C 83.419166 48.642960 59.771439
C 81.994472 48.598690 60.009441
C 77.663960 44.275246 60.156206
C 79.123694 44.203248 59.777285
C 80.083609 44.911773 60.493591
C 80.600052 43.945596 61.068411
C 79.735530 43.045801 60.469286
C 79.109616 41.734140 60.157121
C 77.675486 41.836255 59.771439
C 76.924784 43.047932 60.009441
C 53.867837 36.689982 60.132330
C 55.182636 36.689982 60.132330
C 55.088254 35.264909 60.132373
C 53.826332 35.276056 60.132348
C 52.547856 33.534272 60.132330
C 53.205270 32.395630 60.132330
C 51.923938 31.764815 60.132373
C 51.302616 32.863238 60.132348
C 57.214048 33.099484 60.132330
C 56.556634 31.960843 60.132330
C 55.369686 32.755132 60.132373
C 56.010315 33.842407 60.132348
C 47.081837 35.820426 60.132330
C 45.767038 35.820426 60.132330
C 45.861420 37.245498 60.132373
C 47.123342 37.234352 60.132348
C 48.401818 38.976136 60.132330
C 47.744404 40.114777 60.132330
C 49.025736 40.745592 60.132374
C 49.647058 39.647170 60.132349
C 59.853982 39.410923 60.132330
C 60.511396 40.549565 60.132330
C 61.698344 39.755276 60.132373
C 61.057716 38.668001 60.132348
C 61.927015 50.648478 60.132330
C 63.241815 50.648478 60.132330
C 63.147432 49.223406 60.132373
C 61.885510 49.234552 60.132348
C 60.607034 47.492768 60.132330
C 61.264448 46.354127 60.132330
C 59.983116 45.723312 60.132373
C 59.361794 46.821734 60.132348
C 65.273227 47.057981 60.132330
C 64.615812 45.919339 60.132330
C 63.428864 46.713628 60.132373
C 64.069493 47.800903 60.132348
C 55.141015 49.778922 60.132330
C 53.826216 49.778922 60.132330
C 53.920598 51.203995 60.132373
C 55.182520 51.192848 60.132348
C 56.460996 52.934632 60.132330
C 55.803582 54.073274 60.132330
C 57.084914 54.704089 60.132374
C 57.706236 53.605666 60.132349
C 67.913160 53.369420 60.132330
C 68.570574 54.508061 60.132330
C 69.757522 53.713772 60.132373
C 69.116894 52.626497 60.132348
C 69.986193 36.689982 60.132330
C 71.300993 36.689982 60.132330
C 71.206610 35.264909 60.132373
C 69.944688 35.276056 60.132348
C 68.666212 33.534272 60.132330
C 69.323627 32.395630 60.132330
C 68.042294 31.764815 60.132373
C 67.420972 32.863238 60.132348
C 73.332405 33.099484 60.132330
C 72.674990 31.960843 60.132330
C 71.488042 32.755132 60.132373
C 72.128671 33.842407 60.132348
C 63.200194 35.820426 60.132330
C 61.885394 35.820426 60.132330
C 61.979776 37.245498 60.132373
C 63.241699 37.234352 60.132348
C 64.520174 38.976136 60.132330
C 63.862760 40.114777 60.132330
C 65.144092 40.745592 60.132374
C 65.765414 39.647170 60.132349
C 75.972338 39.410923 60.132330
C 76.629752 40.549565 60.132330
C 77.816700 39.755276 60.132373
C 77.176072 38.668001 60.132348
C 78.045371 50.648478 60.132330
C 79.360171 50.648478 60.132330
C 79.265788 49.223406 60.132373
C 78.003866 49.234552 60.132348
C 76.725390 47.492768 60.132330
C 77.382805 46.354127 60.132330
C 76.101472 45.723312 60.132373
C 75.480151 46.821734 60.132348
C 81.391583 47.057981 60.132330
C 80.734168 45.919339 60.132330
C 79.547221 46.713628 60.132373
C 80.187849 47.800903 60.132348
C 71.259372 49.778922 60.132330
C 69.944572 49.778922 60.132330
C 70.038954 51.203995 60.132373
C 71.300877 51.192848 60.132348
C 72.579352 52.934632 60.132330
C 71.921938 54.073274 60.132330
C 73.203270 54.704089 60.132374
C 73.824592 53.605666 60.132349
C 84.031516 53.369420 60.132330
C 84.688930 54.508061 60.132330
C 85.875878 53.713772 60.132373
C 85.235250 52.626497 60.132348
