64

C -1.197291 -0.841808 10.733734
C -1.195285 0.518463 10.194491
C -0.093659 1.281110 10.733734
C 1.083235 0.539906 11.200552
C 2.311322 0.438619 11.992615
C 2.263381 -1.010660 11.835575
C 1.333912 -0.866152 10.733734
C 0.063069 -1.574040 10.840582
C -8.891214 -5.283896 -1.830388
C -7.665571 -5.935382 -2.293516
C -7.665546 -6.061992 -3.732253
C -8.474636 -5.108435 -4.499382
C -9.179831 -4.705257 -5.718385
C -9.888350 -3.692720 -4.943697
C -8.905269 -3.806275 -3.885631
C -9.401209 -4.118441 -2.549906
C 8.919855 -5.283896 -1.830388
C 8.871237 -3.896714 -2.293516
C 8.980872 -3.833389 -3.732253
C 8.559613 -5.010859 -4.499382
C 8.563048 -5.823165 -5.718385
C 8.040424 -6.943029 -4.943697
C 7.647225 -6.034878 -3.885631
C 8.165539 -6.308292 -2.549906
C 0.014321 10.134087 -1.849775
C 1.322475 10.100334 -2.485453
C 1.307075 9.448617 -3.788578
C 0.038278 9.368133 -4.515304
C -0.777152 9.234431 -5.747383
C -0.549235 8.648466 -6.926511
C -1.800952 9.985134 -5.049200
C -1.278434 9.441072 -3.809918
C -1.150145 10.400196 -2.692679
C -4.697271 -2.862522 5.018291
C -5.391234 -3.263181 3.885055
C -6.445347 -3.525525 4.694571
C -5.542620 -3.696833 5.692049
C 4.779902 -2.874694 5.018291
C 5.473865 -3.275354 3.885055
C 6.230109 -4.054736 4.694965
C 5.926141 -3.186723 5.691651
C -0.039669 5.306939 5.008598
C -0.039669 6.108258 3.875361
C 0.250225 7.154136 4.686162
C -0.349536 6.454310 5.681027
C -0.703123 -6.048435 -3.808942
C 0.684802 -6.048435 -3.808942
C 0.626624 -6.958192 -4.811066
C -0.589725 -7.308037 -4.323900
C -5.438833 2.216409 -3.847774
C -4.744870 3.418388 -3.847774
C -5.857371 3.993513 -4.364367
C -6.171192 2.770179 -4.858530
C 5.472673 2.238289 -3.760416
C 4.815273 3.376939 -3.760416
C 5.878370 3.881735 -4.569580
C 6.501373 2.784283 -4.563271
C 0.446386 -1.195649 -0.852155
C -0.006466 -0.369508 -0.214310
C 0.874528 -1.957947 -1.425152
C 1.085483 -1.010543 1.053149
C 0.901215 -2.043467 1.650233
C 1.241102 -0.081646 0.531137
C 0.737022 -2.933866 2.182175
