64

C -1.197291 -0.841806 10.733734
C -1.195285 0.518464 10.194490
C -0.093659 1.281112 10.733734
C 1.083235 0.539907 11.200551
C 2.311322 0.438621 11.992615
C 2.263381 -1.010659 11.835574
C 1.333912 -0.866151 10.733734
C 0.063069 -1.574038 10.840582
C -8.891213 -5.283894 -1.830389
C -7.665570 -5.935381 -2.293516
C -7.665546 -6.061990 -3.732254
C -8.474636 -5.108434 -4.499382
C -9.179830 -4.705256 -5.718385
C -9.888350 -3.692718 -4.943698
C -8.905269 -3.806274 -3.885631
C -9.401209 -4.118439 -2.549907
C 8.919855 -5.283894 -1.830389
C 8.871237 -3.896713 -2.293516
C 8.980872 -3.833387 -3.732254
C 8.559613 -5.010858 -4.499382
C 8.563048 -5.823163 -5.718385
C 8.040424 -6.943028 -4.943698
C 7.647226 -6.034877 -3.885631
C 8.165539 -6.308291 -2.549907
C 0.014321 10.134089 -1.849776
C 1.322476 10.100336 -2.485453
C 1.307075 9.448618 -3.788579
C 0.038278 9.368135 -4.515304
C -0.777152 9.234433 -5.747384
C -0.549235 8.648467 -6.926511
C -1.800952 9.985136 -5.049201
C -1.278433 9.441074 -3.809919
C -1.150144 10.400197 -2.692679
C -4.697271 -2.862521 5.018291
C -5.391234 -3.263180 3.885055
C -6.445347 -3.525523 4.694570
C -5.542619 -3.696832 5.692048
C 4.779902 -2.874693 5.018291
C 5.473865 -3.275352 3.885055
C 6.230109 -4.054735 4.694964
C 5.926141 -3.186722 5.691650
C -0.039669 5.306941 5.008597
C -0.039669 6.108260 3.875361
C 0.250225 7.154137 4.686161
C -0.349536 6.454312 5.681026
C -0.703123 -6.048434 -3.808943
C 0.684802 -6.048434 -3.808943
C 0.626624 -6.958191 -4.811067
C -0.589724 -7.308036 -4.323901
C -5.438832 2.216411 -3.847775
C -4.744870 3.418389 -3.847775
C -5.857371 3.993514 -4.364368
C -6.171192 2.770180 -4.858531
C 5.472678 2.238284 -3.760416
C 4.815270 3.376948 -3.760416
C 5.878370 3.881704 -4.569590
C 6.501363 2.784237 -4.563228
C -0.404053 1.127455 0.114924
C -0.732110 2.027384 0.761056
C -0.120769 0.306844 -0.474668
C 1.811597 1.855534 0.865198
C 0.799266 1.663462 1.494237
C 2.714508 2.011854 0.299618
C -0.084000 1.483712 2.032997
