32

C 10.333312 0.693963 -0.000000
C 10.333312 -0.693963 0.000000
C 11.636159 -0.635785 0.366744
C 11.674222 0.580564 -0.231815
C -0.693963 10.333312 0.000000
C 0.693963 10.333312 0.000000
C 0.635785 11.636159 0.366744
C -0.580564 11.674222 -0.231815
C -10.333312 -0.693963 -0.000000
C -10.333312 0.693963 0.000000
C -11.636159 0.635785 0.366744
C -11.674222 -0.580564 -0.231815
C 0.693963 -10.333312 0.000000
C -0.693963 -10.333312 0.000000
C -0.635785 -11.636159 0.366744
C 0.580564 -11.674222 -0.231815
C 6.841897 7.771613 -0.000000
C 7.771613 6.841897 -0.000000
C 8.692417 7.896229 -0.283243
C 7.792341 8.780793 -0.281028
C -7.771613 6.841897 -0.000000
C -6.841897 7.771613 -0.000000
C -7.896229 8.692417 -0.283243
C -8.780793 7.792341 -0.281028
C -6.841897 -7.771613 -0.000000
C -7.771613 -6.841897 -0.000000
C -8.692417 -7.896229 -0.283243
C -7.792341 -8.780793 -0.281028
C 7.771613 -6.841897 -0.000000
C 6.841897 -7.771613 -0.000000
C 7.896229 -8.692417 -0.283243
C 8.780793 -7.792341 -0.281028
