32

C 10.438762 0.693963 -0.000000
C 10.438762 -0.693963 0.000000
C 11.741608 -0.635785 0.366744
C 11.779672 0.580564 -0.231815
C -0.693963 10.438762 0.000000
C 0.693963 10.438762 0.000000
C 0.635785 11.741608 0.366744
C -0.580564 11.779672 -0.231815
C -10.438762 -0.693963 -0.000000
C -10.438762 0.693963 0.000000
C -11.741608 0.635785 0.366744
C -11.779672 -0.580564 -0.231815
C 0.693963 -10.438762 0.000000
C -0.693963 -10.438762 0.000000
C -0.635785 -11.741608 0.366744
C 0.580564 -11.779672 -0.231815
C 6.916467 7.846171 0.000000
C 7.846171 6.916467 -0.000000
C 8.664790 7.868563 -0.680526
C 7.765560 8.753960 -0.675181
C -7.846171 6.916467 -0.000000
C -6.916467 7.846171 -0.000000
C -7.868563 8.664790 -0.680526
C -8.753960 7.765560 -0.675181
C -6.916467 -7.846171 0.000000
C -7.846171 -6.916467 -0.000000
C -8.664790 -7.868563 -0.680526
C -7.765560 -8.753960 -0.675181
C 7.846171 -6.916467 -0.000000
C 6.916467 -7.846171 -0.000000
C 7.868563 -8.664790 -0.680526
C 8.753960 -7.765560 -0.675181
