77

C 0.000000 0.000000 0.000000
C -6.526325 -6.985453 0.907558
C -5.230689 -5.616492 0.654321
C -4.232347 -5.730799 -0.291686
C -3.282605 -4.741947 -0.488069
C -3.329595 -3.606158 0.281410
C -2.319446 -2.521869 0.136259
C -1.054689 -2.869438 0.151239
C -0.504845 -4.218820 0.299737
C 0.806264 -4.174802 0.260421
C 1.234444 -2.772210 0.080512
C 2.470953 -2.339150 -0.010484
C 3.570961 -3.341933 0.067038
C 4.639045 -3.115062 0.941838
C 5.678797 -4.018363 1.006342
C 5.699977 -5.142179 0.232757
C 7.168558 -6.360225 0.360611
C 4.635512 -5.371692 -0.642710
C 3.571361 -4.469056 -0.723871
C 2.884928 -0.956405 -0.171492
C 2.146260 0.067897 0.049713
C 2.883263 1.233490 -0.186437
C 2.418049 2.474272 -0.082333
C 3.300903 3.632963 -0.352003
C 2.947590 4.686724 -1.143757
C 3.743512 5.782345 -1.384384
C 4.978764 5.811192 -0.783462
C 6.108853 7.313173 -1.097981
C 5.404920 4.785455 0.028272
C 4.565419 3.703567 0.240069
C 1.047719 2.798875 0.282630
C 0.619885 3.788723 1.061139
C -0.838321 3.727205 1.101884
C -1.234433 2.694275 0.340028
C -0.084416 2.054589 -0.212213
C -2.598277 2.272616 0.058796
C -3.592457 3.367120 -0.060991
C -4.802523 3.295063 0.636654
C -5.691025 4.316919 0.475934
C -5.491890 5.419025 -0.321160
C -6.756573 6.818202 -0.514995
C -4.292798 5.492945 -1.013468
C -3.396056 4.466844 -0.854981
C -2.978951 1.005607 -0.046702
C -4.334770 0.526000 -0.333843
C -4.234982 -0.788173 -0.304899
C -2.832813 -1.167105 -0.002473
C -2.118655 -0.104031 0.142299
C 4.233718 0.845740 -0.603354
C 4.222280 -0.473408 -0.590972
C 0.056811 -2.018455 0.020201
C -4.336667 -3.488039 1.236846
C -5.282450 -4.470443 1.433614
C -4.202406 -6.616651 -0.887170
C -2.552277 -4.903933 -1.257732
C -1.033605 -5.168859 0.441233
C 1.416586 -5.065359 0.364476
C 4.591277 -2.215195 1.539384
C 6.486135 -3.794278 1.705321
C 4.666898 -6.268707 -1.252615
C 2.799073 -4.696208 -1.427610
C 1.965727 4.658943 -1.618734
C 3.383078 6.570204 -2.026983
C 6.391967 4.820529 0.500782
C 4.944174 2.933573 0.895147
C 1.202580 4.541264 1.597253
C -1.447182 4.422076 1.666054
C -5.051487 2.482732 1.294573
C -6.652221 4.292854 1.009539
C -4.105883 6.333799 -1.640699
C -2.447846 4.531723 -1.410495
C -5.239881 1.070029 -0.539926
C -5.083694 -1.432534 -0.485428
C 5.081058 1.449560 -0.878355
C 5.093378 -1.054581 -0.860371
C -4.411235 -2.604646 1.868696
C -6.074391 -4.408737 2.164434
