77

C 0.000000 0.000000 0.000000
C -6.651250 -6.873616 0.533669
C -5.307080 -5.530303 0.344463
C -4.286516 -5.634185 -0.581748
C -3.323416 -4.659325 -0.710265
C -3.373547 -3.552687 0.101669
C -2.339482 -2.480608 0.013291
C -1.087654 -2.861705 0.046170
C -0.568127 -4.224755 0.166967
C 0.743430 -4.210114 0.148470
C 1.203220 -2.817395 0.011286
C 2.451490 -2.405318 -0.044580
C 3.542693 -3.417057 0.033320
C 4.568099 -3.182303 0.934802
C 5.631287 -4.054118 1.042751
C 5.657465 -5.160409 0.241242
C 7.145410 -6.357688 0.408476
C 4.630826 -5.412277 -0.674523
C 3.554816 -4.525462 -0.781018
C 2.877867 -1.023058 -0.188069
C 2.148029 0.003157 0.049893
C 2.887615 1.166701 -0.190023
C 2.432272 2.408527 -0.068138
C 3.338060 3.551466 -0.351909
C 2.996515 4.602916 -1.148381
C 3.830382 5.672765 -1.393924
C 5.078704 5.705747 -0.816747
C 6.306658 7.134944 -1.092047
C 5.468817 4.664737 -0.002650
C 4.608946 3.598970 0.228350
C 1.079224 2.754685 0.329933
C 0.716799 3.757104 1.148441
C -0.744953 3.746533 1.226250
C -1.217173 2.752589 0.462189
C -0.092727 2.092076 -0.125378
C -2.556832 2.325508 0.132037
C -3.559287 3.391402 -0.069844
C -3.893862 4.335962 0.848211
C -4.822782 5.321076 0.543344
C -5.441273 5.386886 -0.684745
C -6.696254 6.785385 -0.982102
C -5.113185 4.441620 -1.614773
C -4.184505 3.452658 -1.318520
C -2.939293 1.066364 -0.036989
C -4.294603 0.608725 -0.377193
C -4.214473 -0.703532 -0.404736
C -2.824120 -1.111062 -0.084780
C -2.103801 -0.063735 0.122119
C 4.231148 0.769858 -0.628303
C 4.212677 -0.548471 -0.623119
C 0.048499 -2.031498 -0.046634
C -4.390176 -3.447525 1.025138
C -5.370161 -4.418817 1.169653
C -4.236453 -6.503361 -1.228379
C -2.570853 -4.800172 -1.467186
C -1.121228 -5.168634 0.275361
C 1.332588 -5.118380 0.237180
C 4.503188 -2.281843 1.556835
C 6.397924 -3.806049 1.770660
C 4.704525 -6.302422 -1.283192
C 2.794741 -4.737589 -1.503383
C 2.012822 4.591765 -1.612956
C 3.540147 6.504422 -2.033407
C 6.458558 4.687194 0.456541
C 4.976537 2.829066 0.888004
C 1.351321 4.465581 1.671740
C -1.285286 4.453221 1.814883
C -3.492716 4.355515 1.838779
C -5.072830 6.073499 1.306035
C -5.601873 4.497353 -2.578354
C -3.950866 2.712416 -2.099041
C -5.190032 1.171565 -0.571637
C -5.065047 -1.327650 -0.634030
C 5.079833 1.367154 -0.912741
C 5.075909 -1.135079 -0.906753
C -4.434089 -2.568694 1.672169
C -6.174314 -4.330581 1.904154
