18

C 6.460842 0.546355 0.357945
C 6.311745 -0.546355 -0.357945
C 4.868802 -1.521719 -1.175780
C 7.728904 -0.692095 -0.257231
C 7.860961 0.358429 0.429468
C -3.023107 5.805170 5.761414
C -3.899651 4.928626 6.199686
C -4.323625 5.947508 7.106246
C -3.478508 6.781286 6.678243
C 1.335081 5.658685 2.382344
C 1.073877 6.752208 3.017849
C -0.225643 6.954671 3.551593
C -1.335081 7.113901 4.003949
C -5.558818 1.449546 5.958094
C -6.048133 0.409811 5.368680
C -6.677605 -0.598971 6.143759
C -7.213768 -1.449546 6.814492
C -8.049161 -2.771463 7.875936
