18

C 6.738532 0.524466 0.390341
C 6.600793 -0.524466 -0.390341
C 5.187154 -1.412899 -1.331673
C 8.006327 -0.715038 -0.223318
C 8.127606 0.293776 0.525120
C -3.176699 6.043302 6.026783
C -4.053232 5.166769 6.465050
C -4.477222 6.185627 7.371638
C -3.632148 7.019439 6.943643
C 1.334522 5.942359 2.524368
C 1.069168 7.035046 3.158258
C -0.223794 7.239582 3.696017
C -1.334522 7.396966 4.145294
C -5.846533 1.451126 6.241343
C -6.343135 0.413997 5.654877
C -6.966888 -0.597139 6.423840
C -7.492793 -1.451126 7.097982
C -8.303736 -2.776957 8.181792
