18

C 2.228312 -1.189205 0.598187
C 3.638452 -0.045207 -0.023507
C 4.953251 -0.045207 -0.023507
C 4.858869 1.206878 -0.704034
C 3.596947 1.197096 -0.698689
C 11.348636 -0.189976 0.055169
C 12.663436 -0.189976 0.055169
C 12.569054 1.062108 -0.625357
C 11.307131 1.052326 -0.620012
C 6.349055 0.133430 0.026253
C 7.314306 -0.316808 -0.702972
C 8.655479 -0.080906 -0.317779
C 9.793917 0.133430 0.026253
C 13.935878 0.090444 -0.041630
C 14.901130 -0.359794 -0.770855
C 16.242303 -0.123892 -0.385662
C 17.380740 0.090444 -0.041630
C 19.154789 0.449151 0.518886
