18

C 2.169012 -1.450089 0.263184
C 3.457093 -0.054397 -0.019874
C 4.771909 -0.054397 -0.019874
C 4.677491 1.342236 -0.303117
C 3.415560 1.331266 -0.300902
C 10.842622 -0.225676 0.014863
C 12.157438 -0.225676 0.014863
C 12.063020 1.170957 -0.268380
C 10.801088 1.159987 -0.266165
C 6.009988 0.166839 0.028665
C 6.973138 -0.550284 -0.446693
C 8.316627 -0.167738 -0.195062
C 9.456293 0.166839 0.028665
C 13.261793 0.101467 -0.014948
C 14.224942 -0.615656 -0.490305
C 15.568432 -0.233110 -0.238674
C 16.708098 0.101467 -0.014948
C 18.485047 0.636715 0.342775
