18

C 4.492237 -0.088528 2.059371
C 5.162152 -0.776705 1.161391
C 4.789487 -2.116870 -0.168026
C 6.316389 -0.072119 1.620758
C 5.663977 0.583241 2.479511
C 2.740759 -3.380695 4.380279
C 4.016318 -3.380695 4.699169
C 3.705632 -4.482885 5.552618
C 2.483097 -4.474224 5.239680
C -1.812651 0.598020 2.282888
C -2.891268 0.405207 2.966479
C -2.975265 -0.714464 3.834756
C -3.033340 -1.669823 4.572828
C 4.374209 -2.320432 4.984300
C 5.479049 -1.676289 5.164009
C 5.441984 -0.271892 5.366295
C 5.396925 0.923294 5.540453
C 5.311224 2.791776 5.811450
