18

C 4.727087 -0.189901 2.187696
C 5.367753 -0.726745 1.172785
C 4.942311 -1.768161 -0.379066
C 6.551948 -0.177096 1.751844
C 5.927428 0.334139 2.721991
C 2.885086 -3.540186 4.587309
C 4.160629 -3.540186 4.906194
C 3.849973 -4.642372 5.759669
C 2.627447 -4.633766 5.446735
C -1.927982 0.577966 2.432813
C -3.005299 0.380832 3.115981
C -3.092138 -0.731694 3.986333
C -3.148160 -1.688928 4.721794
C 4.547268 -2.276606 5.018699
C 5.548354 -1.496703 4.782538
C 5.622539 -0.235356 5.419930
C 5.666405 0.838951 5.971543
C 5.703586 2.520114 6.844704
