18

C -1.945489 -1.395692 0.283058
C -0.657408 -0.000000 0.000000
C 0.657408 0.000000 -0.000000
C 0.562990 1.396633 -0.283243
C -0.698941 1.385664 -0.281028
C 12.115178 -0.000000 0.000000
C 13.429994 -0.000000 0.000000
C 13.335576 1.396633 -0.283243
C 12.073645 1.385664 -0.281028
C 4.663141 -0.000000 0.000000
C 5.626290 -0.717123 -0.475357
C 6.969780 -0.334577 -0.223726
C 8.109445 -0.000000 0.000000
C 17.435727 0.000000 -0.000000
C 18.398876 -0.717123 -0.475357
C 19.742366 -0.334577 -0.223726
C 20.882032 -0.000000 0.000000
C 22.658981 0.535248 0.357723
