18

C -2.067540 -1.143998 0.621694
C -0.657400 0.000000 -0.000000
C 0.657400 -0.000000 0.000000
C 0.563017 1.252085 -0.680526
C -0.698905 1.242303 -0.675181
C 12.681925 0.000000 -0.000000
C 13.996725 -0.000000 0.000000
C 13.902342 1.252085 -0.680526
C 12.640420 1.242303 -0.675181
C 4.947232 0.000000 -0.000000
C 5.912483 -0.450238 -0.729224
C 7.253656 -0.214336 -0.344032
C 8.392093 -0.000000 0.000000
C 18.286557 0.000000 -0.000000
C 19.251808 -0.450238 -0.729224
C 20.592981 -0.214336 -0.344032
C 21.731419 -0.000000 0.000000
C 23.505468 0.358707 0.560516
