254

C -38.570420 -1.710718 0.929710
C -37.160281 -0.566720 0.308016
C -35.845481 -0.566720 0.308016
C -35.939863 0.685365 -0.372510
C -37.201786 0.675583 -0.367165
C -31.940900 -0.566720 0.308016
C -30.626100 -0.566720 0.308016
C -30.720483 0.685365 -0.372510
C -31.982405 0.675583 -0.367165
C -26.721519 -0.566720 0.308016
C -25.406719 -0.566720 0.308016
C -25.501102 0.685365 -0.372510
C -26.763024 0.675583 -0.367165
C -21.502138 -0.566720 0.308016
C -20.187339 -0.566720 0.308016
C -20.281721 0.685365 -0.372510
C -21.543643 0.675583 -0.367165
C -16.282758 -0.566720 0.308016
C -14.967958 -0.566720 0.308016
C -15.062340 0.685365 -0.372510
C -16.324263 0.675583 -0.367165
C -11.063377 -0.566720 0.308016
C -9.748577 -0.566720 0.308016
C -9.842960 0.685365 -0.372510
C -11.104882 0.675583 -0.367165
C -5.843996 -0.566720 0.308016
C -4.529196 -0.566720 0.308016
C -4.623579 0.685365 -0.372510
C -5.885501 0.675583 -0.367165
C -0.624615 -0.566720 0.308016
C 0.690184 -0.566720 0.308016
C 0.595802 0.685365 -0.372510
C -0.666120 0.675583 -0.367165
C 4.594766 -0.566720 0.308016
C 5.909565 -0.566720 0.308016
C 5.815183 0.685365 -0.372510
C 4.553261 0.675583 -0.367165
C 9.814146 -0.566720 0.308016
C 11.128946 -0.566720 0.308016
C 11.034564 0.685365 -0.372510
C 9.772641 0.675583 -0.367165
C 15.033527 -0.566720 0.308016
C 16.348327 -0.566720 0.308016
C 16.253944 0.685365 -0.372510
C 14.992022 0.675583 -0.367165
C 20.252908 -0.566720 0.308016
C 21.567708 -0.566720 0.308016
C 21.473325 0.685365 -0.372510
C 20.211403 0.675583 -0.367165
C 25.472289 -0.566720 0.308016
C 26.787088 -0.566720 0.308016
C 26.692706 0.685365 -0.372510
C 25.430784 0.675583 -0.367165
C 30.691669 -0.566720 0.308016
C 32.006469 -0.566720 0.308016
C 31.912087 0.685365 -0.372510
C 30.650164 0.675583 -0.367165
C 35.911050 -0.566720 0.308016
C 37.225850 -0.566720 0.308016
C 38.641656 -1.701924 0.924939
C 37.131467 0.685365 -0.372510
C 35.869545 0.675583 -0.367165
C -22.074349 0.670091 -9.599771
C -22.074349 -0.670091 -9.599771
C -22.067171 -0.654936 -8.278490
C -22.067252 0.658939 -8.293508
C -22.074349 7.261889 -6.314238
C -22.074349 6.314238 -7.261889
C -22.067171 5.390667 -6.316886
C -22.067252 6.330336 -5.398455
C -22.074349 9.599771 0.670091
C -22.074349 9.599771 -0.670091
C -22.067171 8.278490 -0.654936
C -22.067252 8.293508 0.658939
C -22.074349 6.314238 7.261889
C -22.074349 7.261889 6.314238
C -22.067171 6.316886 5.390667
C -22.067252 5.398455 6.330336
C -22.074349 -0.670091 9.599771
C -22.074349 0.670091 9.599771
C -22.067171 0.654936 8.278490
C -22.067252 -0.658939 8.293508
C -22.074349 -7.261889 6.314238
C -22.074349 -6.314238 7.261889
C -22.067171 -5.390667 6.316886
C -22.067252 -6.330336 5.398455
C -22.074349 -9.599771 -0.670091
C -22.074349 -9.599771 0.670091
C -22.067171 -8.278490 0.654936
C -22.067252 -8.293508 -0.658939
C -22.074349 -6.314238 -7.261889
C -22.074349 -7.261889 -6.314238
C -22.067171 -6.316886 -5.390667
C -22.067252 -5.398455 -6.330336
C -4.414870 0.670091 -9.599771
C -4.414870 -0.670091 -9.599771
C -4.407691 -0.654936 -8.278490
C -4.407773 0.658939 -8.293508
C -4.414870 7.261889 -6.314238
C -4.414870 6.314238 -7.261889
C -4.407691 5.390667 -6.316886
C -4.407773 6.330336 -5.398455
C -4.414870 9.599771 0.670091
C -4.414870 9.599771 -0.670091
C -4.407691 8.278490 -0.654936
C -4.407773 8.293508 0.658939
C -4.414870 6.314238 7.261889
C -4.414870 7.261889 6.314238
C -4.407691 6.316886 5.390667
C -4.407773 5.398455 6.330336
C -4.414870 -0.670091 9.599771
C -4.414870 0.670091 9.599771
C -4.407691 0.654936 8.278490
C -4.407773 -0.658939 8.293508
C -4.414870 -7.261889 6.314238
C -4.414870 -6.314238 7.261889
C -4.407691 -5.390667 6.316886
C -4.407773 -6.330336 5.398455
C -4.414870 -9.599771 -0.670091
C -4.414870 -9.599771 0.670091
C -4.407691 -8.278490 0.654936
C -4.407773 -8.293508 -0.658939
C -4.414870 -6.314238 -7.261889
C -4.414870 -7.261889 -6.314238
C -4.407691 -6.316886 -5.390667
C -4.407773 -5.398455 -6.330336
C 13.244609 0.670091 -9.599771
C 13.244609 -0.670091 -9.599771
C 13.251788 -0.654936 -8.278490
C 13.251707 0.658939 -8.293508
C 13.244609 7.261889 -6.314238
C 13.244609 6.314238 -7.261889
C 13.251788 5.390667 -6.316886
C 13.251707 6.330336 -5.398455
C 13.244609 9.599771 0.670091
C 13.244609 9.599771 -0.670091
C 13.251788 8.278490 -0.654936
C 13.251707 8.293508 0.658939
C 13.244609 6.314238 7.261889
C 13.244609 7.261889 6.314238
C 13.251788 6.316886 5.390667
C 13.251707 5.398455 6.330336
C 13.244609 -0.670091 9.599771
C 13.244609 0.670091 9.599771
C 13.251788 0.654936 8.278490
C 13.251707 -0.658939 8.293508
C 13.244609 -7.261889 6.314238
C 13.244609 -6.314238 7.261889
C 13.251788 -5.390667 6.316886
C 13.251707 -6.330336 5.398455
C 13.244609 -9.599771 -0.670091
C 13.244609 -9.599771 0.670091
C 13.251788 -8.278490 0.654936
C 13.251707 -8.293508 -0.658939
C 13.244609 -6.314238 -7.261889
C 13.244609 -7.261889 -6.314238
C 13.251788 -6.316886 -5.390667
C 13.251707 -5.398455 -6.330336
C -13.244609 0.726773 -10.095060
C -13.244609 -0.726773 -10.095060
C -13.263453 -0.679234 -11.488362
C -13.263710 0.593622 -11.507086
C -13.244609 7.652191 -6.624379
C -13.244609 6.624379 -7.652191
C -13.263453 7.643208 -8.603790
C -13.263710 8.556493 -7.716984
C -13.244609 10.095060 0.726773
C -13.244609 10.095060 -0.726773
C -13.263453 11.488362 -0.679234
C -13.263710 11.507086 0.593622
C -13.244609 6.624379 7.652191
C -13.244609 7.652191 6.624379
C -13.263453 8.603790 7.643208
C -13.263710 7.716984 8.556493
C -13.244609 -0.726773 10.095060
C -13.244609 0.726773 10.095060
C -13.263453 0.679234 11.488362
C -13.263710 -0.593622 11.507086
C -13.244609 -7.652191 6.624379
C -13.244609 -6.624379 7.652191
C -13.263453 -7.643208 8.603790
C -13.263710 -8.556493 7.716984
C -13.244609 -10.095060 -0.726773
C -13.244609 -10.095060 0.726773
C -13.263453 -11.488362 0.679234
C -13.263710 -11.507086 -0.593622
C -13.244609 -6.624379 -7.652191
C -13.244609 -7.652191 -6.624379
C -13.263453 -8.603790 -7.643208
C -13.263710 -7.716984 -8.556493
C 4.414870 0.726773 -10.095060
C 4.414870 -0.726773 -10.095060
C 4.396026 -0.679234 -11.488362
C 4.395769 0.593622 -11.507086
C 4.414870 7.652191 -6.624379
C 4.414870 6.624379 -7.652191
C 4.396026 7.643208 -8.603790
C 4.395769 8.556493 -7.716984
C 4.414870 10.095060 0.726773
C 4.414870 10.095060 -0.726773
C 4.396026 11.488362 -0.679234
C 4.395769 11.507086 0.593622
C 4.414870 6.624379 7.652191
C 4.414870 7.652191 6.624379
C 4.396026 8.603790 7.643208
C 4.395769 7.716984 8.556493
C 4.414870 -0.726773 10.095060
C 4.414870 0.726773 10.095060
C 4.396026 0.679234 11.488362
C 4.395769 -0.593622 11.507086
C 4.414870 -7.652191 6.624379
C 4.414870 -6.624379 7.652191
C 4.396026 -7.643208 8.603790
C 4.395769 -8.556493 7.716984
C 4.414870 -10.095060 -0.726773
C 4.414870 -10.095060 0.726773
C 4.396026 -11.488362 0.679234
C 4.395769 -11.507086 -0.593622
C 4.414870 -6.624379 -7.652191
C 4.414870 -7.652191 -6.624379
C 4.396026 -8.603790 -7.643208
C 4.395769 -7.716984 -8.556493
C 22.074349 0.726773 -10.095060
C 22.074349 -0.726773 -10.095060
C 22.055505 -0.679234 -11.488362
C 22.055248 0.593622 -11.507086
C 22.074349 7.652191 -6.624379
C 22.074349 6.624379 -7.652191
C 22.055505 7.643208 -8.603790
C 22.055248 8.556493 -7.716984
C 22.074349 10.095060 0.726773
C 22.074349 10.095060 -0.726773
C 22.055505 11.488362 -0.679234
C 22.055248 11.507086 0.593622
C 22.074349 6.624379 7.652191
C 22.074349 7.652191 6.624379
C 22.055505 8.603790 7.643208
C 22.055248 7.716984 8.556493
C 22.074349 -0.726773 10.095060
C 22.074349 0.726773 10.095060
C 22.055505 0.679234 11.488362
C 22.055248 -0.593622 11.507086
C 22.074349 -7.652191 6.624379
C 22.074349 -6.624379 7.652191
C 22.055505 -7.643208 8.603790
C 22.055248 -8.556493 7.716984
C 22.074349 -10.095060 -0.726773
C 22.074349 -10.095060 0.726773
C 22.055505 -11.488362 0.679234
C 22.055248 -11.507086 -0.593622
C 22.074349 -6.624379 -7.652191
C 22.074349 -7.652191 -6.624379
C 22.055505 -8.603790 -7.643208
C 22.055248 -7.716984 -8.556493
