254

C -38.081309 -2.025784 0.410845
C -36.793228 -0.630092 0.127787
C -35.478412 -0.630092 0.127787
C -35.572830 0.766540 -0.155455
C -36.834762 0.755571 -0.153241
C -31.626572 -0.630092 0.127787
C -30.311756 -0.630092 0.127787
C -30.406174 0.766540 -0.155455
C -31.668106 0.755571 -0.153241
C -26.459916 -0.630092 0.127787
C -25.145100 -0.630092 0.127787
C -25.239518 0.766540 -0.155455
C -26.501450 0.755571 -0.153241
C -21.293260 -0.630092 0.127787
C -19.978444 -0.630092 0.127787
C -20.072862 0.766540 -0.155455
C -21.334794 0.755571 -0.153241
C -16.126604 -0.630092 0.127787
C -14.811788 -0.630092 0.127787
C -14.906206 0.766540 -0.155455
C -16.168138 0.755571 -0.153241
C -10.959948 -0.630092 0.127787
C -9.645132 -0.630092 0.127787
C -9.739550 0.766540 -0.155455
C -11.001482 0.755571 -0.153241
C -5.793292 -0.630092 0.127787
C -4.478476 -0.630092 0.127787
C -4.572894 0.766540 -0.155455
C -5.834826 0.755571 -0.153241
C -0.626636 -0.630092 0.127787
C 0.688179 -0.630092 0.127787
C 0.593762 0.766540 -0.155455
C -0.668170 0.755571 -0.153241
C 4.540019 -0.630092 0.127787
C 5.854835 -0.630092 0.127787
C 5.760417 0.766540 -0.155455
C 4.498486 0.755571 -0.153241
C 9.706675 -0.630092 0.127787
C 11.021491 -0.630092 0.127787
C 10.927073 0.766540 -0.155455
C 9.665142 0.755571 -0.153241
C 14.873331 -0.630092 0.127787
C 16.188147 -0.630092 0.127787
C 16.093729 0.766540 -0.155455
C 14.831798 0.755571 -0.153241
C 20.039987 -0.630092 0.127787
C 21.354803 -0.630092 0.127787
C 21.260385 0.766540 -0.155455
C 19.998454 0.755571 -0.153241
C 25.206643 -0.630092 0.127787
C 26.521459 -0.630092 0.127787
C 26.427041 0.766540 -0.155455
C 25.165110 0.755571 -0.153241
C 30.373299 -0.630092 0.127787
C 31.688115 -0.630092 0.127787
C 31.593697 0.766540 -0.155455
C 30.331766 0.755571 -0.153241
C 35.539955 -0.630092 0.127787
C 36.854771 -0.630092 0.127787
C 38.274291 -1.903112 0.385966
C 36.760353 0.766540 -0.155455
C 35.498422 0.755571 -0.153241
C -21.831068 0.670091 -9.599771
C -21.831068 -0.670091 -9.599771
C -21.823890 -0.654936 -8.278490
C -21.823971 0.658939 -8.293508
C -21.831068 7.261889 -6.314238
C -21.831068 6.314238 -7.261889
C -21.823890 5.390667 -6.316886
C -21.823971 6.330336 -5.398455
C -21.831068 9.599771 0.670091
C -21.831068 9.599771 -0.670091
C -21.823890 8.278490 -0.654936
C -21.823971 8.293508 0.658939
C -21.831068 6.314238 7.261889
C -21.831068 7.261889 6.314238
C -21.823890 6.316886 5.390667
C -21.823971 5.398455 6.330336
C -21.831068 -0.670091 9.599771
C -21.831068 0.670091 9.599771
C -21.823890 0.654936 8.278490
C -21.823971 -0.658939 8.293508
C -21.831068 -7.261889 6.314238
C -21.831068 -6.314238 7.261889
C -21.823890 -5.390667 6.316886
C -21.823971 -6.330336 5.398455
C -21.831068 -9.599771 -0.670091
C -21.831068 -9.599771 0.670091
C -21.823890 -8.278490 0.654936
C -21.823971 -8.293508 -0.658939
C -21.831068 -6.314238 -7.261889
C -21.831068 -7.261889 -6.314238
C -21.823890 -6.316886 -5.390667
C -21.823971 -5.398455 -6.330336
C -4.366214 0.670091 -9.599771
C -4.366214 -0.670091 -9.599771
C -4.359035 -0.654936 -8.278490
C -4.359117 0.658939 -8.293508
C -4.366214 7.261889 -6.314238
C -4.366214 6.314238 -7.261889
C -4.359035 5.390667 -6.316886
C -4.359117 6.330336 -5.398455
C -4.366214 9.599771 0.670091
C -4.366214 9.599771 -0.670091
C -4.359035 8.278490 -0.654936
C -4.359117 8.293508 0.658939
C -4.366214 6.314238 7.261889
C -4.366214 7.261889 6.314238
C -4.359035 6.316886 5.390667
C -4.359117 5.398455 6.330336
C -4.366214 -0.670091 9.599771
C -4.366214 0.670091 9.599771
C -4.359035 0.654936 8.278490
C -4.359117 -0.658939 8.293508
C -4.366214 -7.261889 6.314238
C -4.366214 -6.314238 7.261889
C -4.359035 -5.390667 6.316886
C -4.359117 -6.330336 5.398455
C -4.366214 -9.599771 -0.670091
C -4.366214 -9.599771 0.670091
C -4.359035 -8.278490 0.654936
C -4.359117 -8.293508 -0.658939
C -4.366214 -6.314238 -7.261889
C -4.366214 -7.261889 -6.314238
C -4.359035 -6.316886 -5.390667
C -4.359117 -5.398455 -6.330336
C 13.098641 0.670091 -9.599771
C 13.098641 -0.670091 -9.599771
C 13.105819 -0.654936 -8.278490
C 13.105738 0.658939 -8.293508
C 13.098641 7.261889 -6.314238
C 13.098641 6.314238 -7.261889
C 13.105819 5.390667 -6.316886
C 13.105738 6.330336 -5.398455
C 13.098641 9.599771 0.670091
C 13.098641 9.599771 -0.670091
C 13.105819 8.278490 -0.654936
C 13.105738 8.293508 0.658939
C 13.098641 6.314238 7.261889
C 13.098641 7.261889 6.314238
C 13.105819 6.316886 5.390667
C 13.105738 5.398455 6.330336
C 13.098641 -0.670091 9.599771
C 13.098641 0.670091 9.599771
C 13.105819 0.654936 8.278490
C 13.105738 -0.658939 8.293508
C 13.098641 -7.261889 6.314238
C 13.098641 -6.314238 7.261889
C 13.105819 -5.390667 6.316886
C 13.105738 -6.330336 5.398455
C 13.098641 -9.599771 -0.670091
C 13.098641 -9.599771 0.670091
C 13.105819 -8.278490 0.654936
C 13.105738 -8.293508 -0.658939
C 13.098641 -6.314238 -7.261889
C 13.098641 -7.261889 -6.314238
C 13.105819 -6.316886 -5.390667
C 13.105738 -5.398455 -6.330336
C -13.098641 0.726773 -10.095060
C -13.098641 -0.726773 -10.095060
C -13.117485 -0.679234 -11.488362
C -13.117742 0.593622 -11.507086
C -13.098641 7.652191 -6.624379
C -13.098641 6.624379 -7.652191
C -13.117485 7.643208 -8.603790
C -13.117742 8.556493 -7.716984
C -13.098641 10.095060 0.726773
C -13.098641 10.095060 -0.726773
C -13.117485 11.488362 -0.679234
C -13.117742 11.507086 0.593622
C -13.098641 6.624379 7.652191
C -13.098641 7.652191 6.624379
C -13.117485 8.603790 7.643208
C -13.117742 7.716984 8.556493
C -13.098641 -0.726773 10.095060
C -13.098641 0.726773 10.095060
C -13.117485 0.679234 11.488362
C -13.117742 -0.593622 11.507086
C -13.098641 -7.652191 6.624379
C -13.098641 -6.624379 7.652191
C -13.117485 -7.643208 8.603790
C -13.117742 -8.556493 7.716984
C -13.098641 -10.095060 -0.726773
C -13.098641 -10.095060 0.726773
C -13.117485 -11.488362 0.679234
C -13.117742 -11.507086 -0.593622
C -13.098641 -6.624379 -7.652191
C -13.098641 -7.652191 -6.624379
C -13.117485 -8.603790 -7.643208
C -13.117742 -7.716984 -8.556493
C 4.366214 0.726773 -10.095060
C 4.366214 -0.726773 -10.095060
C 4.347370 -0.679234 -11.488362
C 4.347113 0.593622 -11.507086
C 4.366214 7.652191 -6.624379
C 4.366214 6.624379 -7.652191
C 4.347370 7.643208 -8.603790
C 4.347113 8.556493 -7.716984
C 4.366214 10.095060 0.726773
C 4.366214 10.095060 -0.726773
C 4.347370 11.488362 -0.679234
C 4.347113 11.507086 0.593622
C 4.366214 6.624379 7.652191
C 4.366214 7.652191 6.624379
C 4.347370 8.603790 7.643208
C 4.347113 7.716984 8.556493
C 4.366214 -0.726773 10.095060
C 4.366214 0.726773 10.095060
C 4.347370 0.679234 11.488362
C 4.347113 -0.593622 11.507086
C 4.366214 -7.652191 6.624379
C 4.366214 -6.624379 7.652191
C 4.347370 -7.643208 8.603790
C 4.347113 -8.556493 7.716984
C 4.366214 -10.095060 -0.726773
C 4.366214 -10.095060 0.726773
C 4.347370 -11.488362 0.679234
C 4.347113 -11.507086 -0.593622
C 4.366214 -6.624379 -7.652191
C 4.366214 -7.652191 -6.624379
C 4.347370 -8.603790 -7.643208
C 4.347113 -7.716984 -8.556493
C 21.831068 0.726773 -10.095060
C 21.831068 -0.726773 -10.095060
C 21.812225 -0.679234 -11.488362
C 21.811968 0.593622 -11.507086
C 21.831068 7.652191 -6.624379
C 21.831068 6.624379 -7.652191
C 21.812225 7.643208 -8.603790
C 21.811968 8.556493 -7.716984
C 21.831068 10.095060 0.726773
C 21.831068 10.095060 -0.726773
C 21.812225 11.488362 -0.679234
C 21.811968 11.507086 0.593622
C 21.831068 6.624379 7.652191
C 21.831068 7.652191 6.624379
C 21.812225 8.603790 7.643208
C 21.811968 7.716984 8.556493
C 21.831068 -0.726773 10.095060
C 21.831068 0.726773 10.095060
C 21.812225 0.679234 11.488362
C 21.811968 -0.593622 11.507086
C 21.831068 -7.652191 6.624379
C 21.831068 -6.624379 7.652191
C 21.812225 -7.643208 8.603790
C 21.811968 -8.556493 7.716984
C 21.831068 -10.095060 -0.726773
C 21.831068 -10.095060 0.726773
C 21.812225 -11.488362 0.679234
C 21.811968 -11.507086 -0.593622
C 21.831068 -6.624379 -7.652191
C 21.831068 -7.652191 -6.624379
C 21.812225 -8.603790 -7.643208
C 21.811968 -7.716984 -8.556493
